     Program PHONON v.7.1 starts on 18Jun2023 at 21:59:44

     R & G space division:  proc/nbgrp/npool/nimage =     224

     Waiting for input...
     Reading input from standard input
      Title line not specified: using 'default'.

     Reading xml data from directory:

     ./scf.save/

     IMPORTANT: XC functional enforced from input :
     Exchange-correlation= PBE
                           (   1   4   3   4   0   0   0)
     Any further DFT definition will be discarded
     Please, verify this is what you really want

     Using Pencil Decomposition

     Reading collected, re-writing distributed wavefunctions

     Dynamical matrices for ( 3, 3, 3)  uniform grid of q-points
     (   8 q-points):
       N         xq(1)         xq(2)         xq(3)
       1   0.000000000   0.000000000   0.000000000
       2   0.246665871   0.000000000  -0.596235615
       3   0.000000000  -0.244327397   0.596235615
       4   0.246665871  -0.244327397  -0.000000000
       5  -0.246665871  -0.244327397   1.192471230
       6   0.493331741   0.000000000  -0.000000000
       7  -0.000000000   0.000000000   1.192471230
       8  -0.000000000   0.488654794   0.000000000
Eigenvectors exchange needed   53   87

     Calculation of q =    0.0000000   0.0000000   0.0000000

     default

     bravais-lattice index     =            0
     lattice parameter (alat)  =      20.4126  a.u.
     unit-cell volume          =    4383.3143 (a.u.)^3
     number of atoms/cell      =           50
     number of atomic types    =            5
     kinetic-energy cut-off    =      60.0000  Ry
     charge density cut-off    =     240.0000  Ry
     convergence threshold     =      1.0E-16
     beta                      =       0.3000
     number of iterations used =            4
     Exchange-correlation= PBE
                           (   1   4   3   4   0   0   0)

     celldm(1)=   20.41261  celldm(2)=    0.00000  celldm(3)=    0.00000
     celldm(4)=    0.00000  celldm(5)=    0.00000  celldm(6)=    0.00000

     crystal axes: (cart. coord. in units of alat)
               a(1) = (  0.6757  0.6821  0.2795 )
               a(2) = (  0.6757 -0.6821  0.2795 )
               a(3) = (  0.6757 -0.6821 -0.2795 )

     reciprocal axes: (cart. coord. in units 2 pi/alat)
               b(1) = (  0.7400  0.7330 -0.0000 )
               b(2) = (  0.0000 -0.7330  1.7887 )
               b(3) = (  0.7400  0.0000 -1.7887 )

     Atoms inside the unit cell:

     Cartesian axes

     site n.  atom      mass           positions (alat units)
        1     Pb 207.2000   tau(    1) = (    1.50696   -0.68214    0.13977  )
        2     Pb 207.2000   tau(    2) = (    0.52008   -0.00000    0.13977  )
        3     Br  79.9000   tau(    3) = (    0.53826    0.27936    0.13977  )
        4     Br  79.9000   tau(    4) = (    0.53826   -0.27936    0.13977  )
        5     Br  79.9000   tau(    5) = (    1.48878   -0.96151    0.13977  )
        6     Br  79.9000   tau(    6) = (    1.48878   -0.40278    0.13977  )
        7     Br  79.9000   tau(    7) = (    1.20660   -0.68214    0.13977  )
        8     Br  79.9000   tau(    8) = (    0.82043    0.00000    0.13977  )
        9     Br  79.9000   tau(    9) = (    1.09988   -0.00000    0.41930  )
       10     Br  79.9000   tau(   10) = (    0.92715   -0.68214   -0.13977  )
       11     C   12.0100   tau(   11) = (    1.04308   -0.27718    0.13977  )
       12     C   12.0100   tau(   12) = (    1.04308    0.27718    0.13977  )
       13     C   12.0100   tau(   13) = (    0.98396   -0.40496    0.13977  )
       14     C   12.0100   tau(   14) = (    0.98396   -0.95933    0.13977  )
       15     C   12.0100   tau(   15) = (    1.24333   -0.16679    0.13977  )
       16     C   12.0100   tau(   16) = (    0.56765   -0.51536   -0.13977  )
       17     C   12.0100   tau(   17) = (    0.78370   -0.51536    0.13977  )
       18     C   12.0100   tau(   18) = (    1.45938   -0.16679    0.41930  )
       19     H    1.0080   tau(   19) = (    1.00980   -0.45780    0.05695  )
       20     H    1.0080   tau(   20) = (    0.33412   -0.22434   -0.05695  )
       21     H    1.0080   tau(   21) = (    1.01723   -0.22434    0.05695  )
       22     H    1.0080   tau(   22) = (    1.01723    0.22434    0.22258  )
       23     H    1.0080   tau(   23) = (    1.01723   -0.22434    0.22258  )
       24     H    1.0080   tau(   24) = (    1.69291   -0.45780    0.33648  )
       25     H    1.0080   tau(   25) = (    1.00980   -0.45780    0.22258  )
       26     H    1.0080   tau(   26) = (    1.00980   -0.90649    0.05695  )
       27     H    1.0080   tau(   27) = (    1.34337   -0.18225    0.13977  )
       28     H    1.0080   tau(   28) = (    0.66769   -0.49990   -0.13977  )
       29     H    1.0080   tau(   29) = (    0.68366   -0.49990    0.13977  )
       30     H    1.0080   tau(   30) = (    1.35934   -0.18225    0.41930  )
       31     H    1.0080   tau(   31) = (    0.81255   -0.56573    0.22293  )
       32     H    1.0080   tau(   32) = (    0.81255   -0.79856    0.05660  )
       33     H    1.0080   tau(   33) = (    1.21448   -0.11642    0.22293  )
       34     H    1.0080   tau(   34) = (    1.21448    0.11642    0.05660  )
       35     H    1.0080   tau(   35) = (    1.21448   -0.11642    0.05660  )
       36     H    1.0080   tau(   36) = (    1.21448    0.11642    0.22293  )
       37     H    1.0080   tau(   37) = (    0.81255   -0.56573    0.05660  )
       38     H    1.0080   tau(   38) = (    0.81255   -0.79856    0.22293  )
       39     H    1.0080   tau(   39) = (    0.81954   -0.34310    0.06116  )
       40     H    1.0080   tau(   40) = (    0.81954    0.34310    0.21837  )
       41     H    1.0080   tau(   41) = (    1.20749   -0.33904    0.06116  )
       42     H    1.0080   tau(   42) = (    0.53181   -0.34310   -0.06116  )
       43     H    1.0080   tau(   43) = (    1.20749   -0.33904    0.21837  )
       44     H    1.0080   tau(   44) = (    1.20749   -1.02525    0.06116  )
       45     H    1.0080   tau(   45) = (    0.81954   -0.34310    0.21837  )
       46     H    1.0080   tau(   46) = (    1.49522   -0.33904    0.34070  )
       47     N   14.0100   tau(   47) = (    1.18039   -0.28934    0.13977  )
       48     N   14.0100   tau(   48) = (    0.50472   -0.39281   -0.13977  )
       49     N   14.0100   tau(   49) = (    0.84664   -0.39281    0.13977  )
       50     N   14.0100   tau(   50) = (    1.52232   -0.28934    0.41930  )

     Computing dynamical matrix for
                    q = (   0.0000000   0.0000000   0.0000000 )

      9 Sym.Ops. (with q -> -q+G )

     G cutoff = 2533.0777  (   1230 G-vectors)     FFT grid: (108,108,108)
     number of k points=     8

     PseudoPot. # 1 for Pb read from file:
     /home/rkarkee/merced_home_backup/rkarkee/pseudo/Pb.upf
     MD5 check sum: 465799cf2c9ea2062203eb79f5a7a375
     Pseudo is Norm-conserving + core correction, Zval = 14.0
     Generated using ONCVPSP code by D. R. Hamann
     Using radial grid of 1678 points,  6 beta functions with:
                l(1) =   0
                l(2) =   0
                l(3) =   1
                l(4) =   1
                l(5) =   2
                l(6) =   2

     PseudoPot. # 2 for Br read from file:
     /home/rkarkee/merced_home_backup/rkarkee/pseudo/Br.upf
     MD5 check sum: 68275ccec8d7d9019ef58dac33cdd12b
     Pseudo is Norm-conserving + core correction, Zval =  7.0
     Generated using ONCVPSP code by D. R. Hamann
     Using radial grid of 1098 points,  6 beta functions with:
                l(1) =   0
                l(2) =   0
                l(3) =   1
                l(4) =   1
                l(5) =   2
                l(6) =   2

     PseudoPot. # 3 for C  read from file:
     /home/rkarkee/merced_home_backup/rkarkee/pseudo/C.upf
     MD5 check sum: 34a24e64c0a39f27c6c36b90a16ac686
     Pseudo is Norm-conserving + core correction, Zval =  4.0
     Generated using ONCVPSP code by D. R. Hamann
     Using radial grid of 1248 points,  4 beta functions with:
                l(1) =   0
                l(2) =   0
                l(3) =   1
                l(4) =   1

     PseudoPot. # 4 for H  read from file:
     /home/rkarkee/merced_home_backup/rkarkee/pseudo/H.upf
     MD5 check sum: e96aa7e3e4a958db16958554ea960e2a
     Pseudo is Norm-conserving, Zval =  1.0
     Generated using ONCVPSP code by D. R. Hamann
     Using radial grid of 1166 points,  3 beta functions with:
                l(1) =   0
                l(2) =   0
                l(3) =   1

     PseudoPot. # 5 for N  read from file:
     /home/rkarkee/merced_home_backup/rkarkee/pseudo/N.upf
     MD5 check sum: d34365f73bb0e2ee98afc20ec3e87676
     Pseudo is Norm-conserving + core correction, Zval =  5.0
     Generated using ONCVPSP code by D. R. Hamann
     Using radial grid of 1058 points,  4 beta functions with:
                l(1) =   0
                l(2) =   0
                l(3) =   1
                l(4) =   1

     Mode symmetry, D_2h (mmm)  point group:

     Electric field:
     Dielectric constant
     Born effective charges in two ways

     Atomic displacements:
     There are  150 irreducible representations

     Representation     1      1 modes -  To be done

[...]

     Alpha used in Ewald sum =   2.0000

     Electric Fields Calculation

      thresh= 1.000E-02 alpha_mix =  0.300 |ddv_scf|^2 =  2.640E-08

[...]

     End of electric fields calculation

          Dielectric constant in cartesian axis

          (       3.219380910      -0.000000000       0.000000000 )
          (      -0.000000000       3.223063263       0.000000000 )
          (       0.000000000       0.000000000       3.352123982 )

          Effective charges (d Force / dE) in cartesian axis without acoustic sum rule applied (asr)

           atom      1   Pb Mean Z*:        3.14527
      Ex  (        2.79251        0.00000        0.00000 )
      Ey  (        0.00000        2.89856        0.00000 )
      Ez  (        0.00000        0.00000        3.74476 )
           atom      2   Pb Mean Z*:        3.14527
      Ex  (        2.79251        0.00000       -0.00000 )
      Ey  (        0.00000        2.89856       -0.00000 )
      Ez  (       -0.00000       -0.00000        3.74476 )
           atom      3   Br Mean Z*:       -1.30109
      Ex  (       -0.70000       -0.05504        0.00000 )
      Ey  (       -0.06911       -1.79237        0.00000 )
      Ez  (       -0.00000        0.00000       -1.41090 )
           atom      4   Br Mean Z*:       -1.30109
      Ex  (       -0.70000        0.05504        0.00000 )
      Ey  (        0.06911       -1.79237       -0.00000 )
      Ez  (        0.00000       -0.00000       -1.41090 )
           atom      5   Br Mean Z*:       -1.30109
      Ex  (       -0.70000       -0.05504        0.00000 )
      Ey  (       -0.06911       -1.79237        0.00000 )
      Ez  (        0.00000        0.00000       -1.41090 )
           atom      6   Br Mean Z*:       -1.30109
      Ex  (       -0.70000        0.05504       -0.00000 )
      Ey  (        0.06911       -1.79237        0.00000 )
      Ez  (        0.00000        0.00000       -1.41090 )
[...]
       10     Br  79.9000   tau(   10) = (    0.92715   -0.68214   -0.13977  )
       11     C   12.0100   tau(   11) = (    1.04308   -0.27718    0.13977  )
       12     C   12.0100   tau(   12) = (    1.04308    0.27718    0.13977  )
       13     C   12.0100   tau(   13) = (    0.98396   -0.40496    0.13977  )
       14     C   12.0100   tau(   14) = (    0.98396   -0.95933    0.13977  )
       15     C   12.0100   tau(   15) = (    1.24333   -0.16679    0.13977  )
       16     C   12.0100   tau(   16) = (    0.56765   -0.51536   -0.13977  )
       17     C   12.0100   tau(   17) = (    0.78370   -0.51536    0.13977  )
       18     C   12.0100   tau(   18) = (    1.45938   -0.16679    0.41930  )
       19     H    1.0080   tau(   19) = (    1.00980   -0.45780    0.05695  )
       20     H    1.0080   tau(   20) = (    0.33412   -0.22434   -0.05695  )
       21     H    1.0080   tau(   21) = (    1.01723   -0.22434    0.05695  )
       22     H    1.0080   tau(   22) = (    1.01723    0.22434    0.22258  )
       23     H    1.0080   tau(   23) = (    1.01723   -0.22434    0.22258  )
       24     H    1.0080   tau(   24) = (    1.69291   -0.45780    0.33648  )
       25     H    1.0080   tau(   25) = (    1.00980   -0.45780    0.22258  )
       26     H    1.0080   tau(   26) = (    1.00980   -0.90649    0.05695  )
       27     H    1.0080   tau(   27) = (    1.34337   -0.18225    0.13977  )
       28     H    1.0080   tau(   28) = (    0.66769   -0.49990   -0.13977  )
       29     H    1.0080   tau(   29) = (    0.68366   -0.49990    0.13977  )
       30     H    1.0080   tau(   30) = (    1.35934   -0.18225    0.41930  )
       31     H    1.0080   tau(   31) = (    0.81255   -0.56573    0.22293  )
       32     H    1.0080   tau(   32) = (    0.81255   -0.79856    0.05660  )
       33     H    1.0080   tau(   33) = (    1.21448   -0.11642    0.22293  )
       34     H    1.0080   tau(   34) = (    1.21448    0.11642    0.05660  )
       35     H    1.0080   tau(   35) = (    1.21448   -0.11642    0.05660  )
       36     H    1.0080   tau(   36) = (    1.21448    0.11642    0.22293  )
       37     H    1.0080   tau(   37) = (    0.81255   -0.56573    0.05660  )
       38     H    1.0080   tau(   38) = (    0.81255   -0.79856    0.22293  )
       39     H    1.0080   tau(   39) = (    0.81954   -0.34310    0.06116  )
       40     H    1.0080   tau(   40) = (    0.81954    0.34310    0.21837  )
       41     H    1.0080   tau(   41) = (    1.20749   -0.33904    0.06116  )
       42     H    1.0080   tau(   42) = (    0.53181   -0.34310   -0.06116  )
       43     H    1.0080   tau(   43) = (    1.20749   -0.33904    0.21837  )
       44     H    1.0080   tau(   44) = (    1.20749   -1.02525    0.06116  )
       45     H    1.0080   tau(   45) = (    0.81954   -0.34310    0.21837  )
       46     H    1.0080   tau(   46) = (    1.49522   -0.33904    0.34070  )
       47     N   14.0100   tau(   47) = (    1.18039   -0.28934    0.13977  )
       48     N   14.0100   tau(   48) = (    0.50472   -0.39281   -0.13977  )
       49     N   14.0100   tau(   49) = (    0.84664   -0.39281    0.13977  )
       50     N   14.0100   tau(   50) = (    1.52232   -0.28934    0.41930  )

     Computing dynamical matrix for
                    q = (  -0.0000000   0.4886548   0.0000000 )

      4 Sym.Ops. (no q -> -q+G )

     G cutoff = 2533.0777  (   1230 G-vectors)     FFT grid: (108,108,108)
     number of k points=    24

     PseudoPot. # 1 for Pb read from file:
     /home/rkarkee/merced_home_backup/rkarkee/pseudo/Pb.upf
     MD5 check sum: 465799cf2c9ea2062203eb79f5a7a375
     Pseudo is Norm-conserving + core correction, Zval = 14.0
     Generated using ONCVPSP code by D. R. Hamann
     Using radial grid of 1678 points,  6 beta functions with:
                l(1) =   0
                l(2) =   0
                l(3) =   1
                l(4) =   1
                l(5) =   2
                l(6) =   2

     PseudoPot. # 2 for Br read from file:
     /home/rkarkee/merced_home_backup/rkarkee/pseudo/Br.upf
     MD5 check sum: 68275ccec8d7d9019ef58dac33cdd12b
     Pseudo is Norm-conserving + core correction, Zval =  7.0
     Generated using ONCVPSP code by D. R. Hamann
     Using radial grid of 1098 points,  6 beta functions with:
                l(1) =   0
                l(2) =   0
                l(3) =   1
                l(4) =   1
                l(5) =   2
                l(6) =   2

     PseudoPot. # 3 for C  read from file:
     /home/rkarkee/merced_home_backup/rkarkee/pseudo/C.upf
     MD5 check sum: 34a24e64c0a39f27c6c36b90a16ac686
     Pseudo is Norm-conserving + core correction, Zval =  4.0
     Generated using ONCVPSP code by D. R. Hamann
     Using radial grid of 1248 points,  4 beta functions with:
                l(1) =   0
                l(2) =   0
                l(3) =   1
                l(4) =   1

     PseudoPot. # 4 for H  read from file:
     /home/rkarkee/merced_home_backup/rkarkee/pseudo/H.upf
     MD5 check sum: e96aa7e3e4a958db16958554ea960e2a
     Pseudo is Norm-conserving, Zval =  1.0
     Generated using ONCVPSP code by D. R. Hamann
     Using radial grid of 1166 points,  3 beta functions with:
                l(1) =   0
                l(2) =   0
                l(3) =   1

     PseudoPot. # 5 for N  read from file:
     /home/rkarkee/merced_home_backup/rkarkee/pseudo/N.upf
     MD5 check sum: d34365f73bb0e2ee98afc20ec3e87676
     Pseudo is Norm-conserving + core correction, Zval =  5.0
     Generated using ONCVPSP code by D. R. Hamann
     Using radial grid of 1058 points,  4 beta functions with:
                l(1) =   0
                l(2) =   0
                l(3) =   1
                l(4) =   1

[...]

     Atomic displacements:
     There are  150 irreducible representations

[...]

     Representation   150      1 modes -  To be done

     Alpha used in Ewald sum =   2.0000

[...]

      thresh= 2.049E-06 alpha_mix =  0.300 |ddv_scf|^2 =  4.970E-11
[node057.cluster:mpi_rank_55][dreg_register] [Performance Impact Warning]: Entries are being evicted from the InfiniBand registration cache. This can lead to degraded performance. Consider increasing MV2_NDREG_ENTRIES_MAX (current value: 16384) and MV2_NDREG_ENTRIES (current value: 8640)

[...]

     Representation # 150 mode # 150

     Self-consistent Calculation

[...]

      thresh= 1.779E-09 alpha_mix =  0.300 |ddv_scf|^2 =  1.278E-17

     End of self-consistent calculation

     Convergence has been achieved

     Number of q in the star =    2
     List of q in the star:
          1  -0.000000000   0.488654794   0.000000000
          2   0.000000000  -0.488654794  -0.000000000

     Diagonalizing the dynamical matrix

     q = (   -0.000000000   0.488654794   0.000000000 )

     freq (    1) =       0.573930 [THz] =      19.144256 [cm-1]
     freq (    2) =       0.655257 [THz] =      21.857028 [cm-1]
     freq (    3) =       0.890462 [THz] =      29.702631 [cm-1]
     freq (    4) =       0.941702 [THz] =      31.411799 [cm-1]
     freq (    5) =       0.967349 [THz] =      32.267284 [cm-1]
     freq (    6) =       1.031969 [THz] =      34.422784 [cm-1]
     freq (    7) =       1.047985 [THz] =      34.957029 [cm-1]
     freq (    8) =       1.186902 [THz] =      39.590776 [cm-1]
     freq (    9) =       1.202332 [THz] =      40.105474 [cm-1]
     freq (   10) =       1.248625 [THz] =      41.649636 [cm-1]
     freq (   11) =       1.296020 [THz] =      43.230580 [cm-1]
     freq (   12) =       1.385356 [THz] =      46.210501 [cm-1]
     freq (   13) =       1.475111 [THz] =      49.204393 [cm-1]
     freq (   14) =       1.513133 [THz] =      50.472671 [cm-1]
     freq (   15) =       1.530705 [THz] =      51.058814 [cm-1]
     freq (   16) =       1.643531 [THz] =      54.822298 [cm-1]
     freq (   17) =       1.680135 [THz] =      56.043286 [cm-1]
     freq (   18) =       1.693371 [THz] =      56.484785 [cm-1]
     freq (   19) =       1.794952 [THz] =      59.873159 [cm-1]
     freq (   20) =       1.833218 [THz] =      61.149566 [cm-1]
     freq (   21) =       1.869456 [THz] =      62.358355 [cm-1]
     freq (   22) =       2.058399 [THz] =      68.660805 [cm-1]
     freq (   23) =       2.198570 [THz] =      73.336399 [cm-1]
     freq (   24) =       2.515510 [THz] =      83.908384 [cm-1]
     freq (   25) =       2.670026 [THz] =      89.062497 [cm-1]
     freq (   26) =       2.681340 [THz] =      89.439876 [cm-1]
     freq (   27) =       2.948093 [THz] =      98.337800 [cm-1]
     freq (   28) =       3.005856 [THz] =     100.264558 [cm-1]
     freq (   29) =       3.028661 [THz] =     101.025266 [cm-1]
     freq (   30) =       3.321915 [THz] =     110.807155 [cm-1]
     freq (   31) =       3.391183 [THz] =     113.117676 [cm-1]
     freq (   32) =       3.459560 [THz] =     115.398488 [cm-1]
     freq (   33) =       3.464461 [THz] =     115.561992 [cm-1]
     freq (   34) =       3.503612 [THz] =     116.867933 [cm-1]
     freq (   35) =       3.561342 [THz] =     118.793568 [cm-1]
     freq (   36) =       3.615659 [THz] =     120.605405 [cm-1]
     freq (   37) =       3.908430 [THz] =     130.371189 [cm-1]
     freq (   38) =       4.003449 [THz] =     133.540686 [cm-1]
     freq (   39) =       4.010930 [THz] =     133.790218 [cm-1]
     freq (   40) =       4.043692 [THz] =     134.883054 [cm-1]
     freq (   41) =       4.202364 [THz] =     140.175777 [cm-1]
     freq (   42) =       4.307104 [THz] =     143.669529 [cm-1]
     freq (   43) =       4.794079 [THz] =     159.913257 [cm-1]
     freq (   44) =       4.946637 [THz] =     165.002049 [cm-1]
     freq (   45) =       5.396409 [THz] =     180.004833 [cm-1]
     freq (   46) =       5.668271 [THz] =     189.073161 [cm-1]
     freq (   47) =       6.402604 [THz] =     213.567889 [cm-1]
     freq (   48) =       6.451793 [THz] =     215.208633 [cm-1]
     freq (   49) =       6.643183 [THz] =     221.592723 [cm-1]
     freq (   50) =       6.662625 [THz] =     222.241238 [cm-1]
     freq (   51) =       8.345569 [THz] =     278.378206 [cm-1]
     freq (   52) =       8.601771 [THz] =     286.924199 [cm-1]
     freq (   53) =       9.042772 [THz] =     301.634406 [cm-1]
     freq (   54) =       9.222473 [THz] =     307.628572 [cm-1]
     freq (   55) =       9.605945 [THz] =     320.419819 [cm-1]
     freq (   56) =       9.630654 [THz] =     321.244052 [cm-1]
     freq (   57) =      11.321518 [THz] =     377.645205 [cm-1]
     freq (   58) =      11.332830 [THz] =     378.022525 [cm-1]
     freq (   59) =      14.162699 [THz] =     472.416800 [cm-1]
     freq (   60) =      14.233455 [THz] =     474.776944 [cm-1]
[...]
     freq (  136) =      90.374746 [THz] =    3014.577046 [cm-1]
     freq (  137) =      90.391603 [THz] =    3015.139333 [cm-1]
     freq (  138) =      90.594375 [THz] =    3021.903086 [cm-1]
     freq (  139) =      91.015260 [THz] =    3035.942270 [cm-1]
     freq (  140) =      91.022255 [THz] =    3036.175603 [cm-1]
     freq (  141) =      91.482088 [THz] =    3051.513984 [cm-1]
     freq (  142) =      91.520214 [THz] =    3052.785725 [cm-1]
     freq (  143) =      91.568952 [THz] =    3054.411478 [cm-1]
     freq (  144) =      91.572391 [THz] =    3054.526181 [cm-1]
     freq (  145) =      91.613956 [THz] =    3055.912647 [cm-1]
     freq (  146) =      91.642354 [THz] =    3056.859905 [cm-1]
     freq (  147) =      92.268439 [THz] =    3077.743823 [cm-1]
     freq (  148) =      92.291250 [THz] =    3078.504723 [cm-1]
     freq (  149) =      92.328293 [THz] =    3079.740349 [cm-1]
     freq (  150) =      92.346958 [THz] =    3080.362939 [cm-1]

     Mode symmetry, C_2v (mm2)  point group:

     freq (   1-   1) =         19.1  [cm-1]   --> B_1  D_3  S_3
     freq (   2-   2) =         21.9  [cm-1]   --> B_2  D_4  S_4
     freq (   3-   3) =         29.7  [cm-1]   --> A_1  D_1  S_1
     freq (   4-   4) =         31.4  [cm-1]   --> B_1  D_3  S_3
     freq (   5-   5) =         32.3  [cm-1]   --> A_2  D_2  S_2
     freq (   6-   6) =         34.4  [cm-1]   --> B_1  D_3  S_3
     freq (   7-   7) =         35.0  [cm-1]   --> B_2  D_4  S_4
     freq (   8-   8) =         39.6  [cm-1]   --> B_1  D_3  S_3
     freq (   9-   9) =         40.1  [cm-1]   --> B_2  D_4  S_4
     freq (  10-  10) =         41.6  [cm-1]   --> A_1  D_1  S_1
     freq (  11-  11) =         43.2  [cm-1]   --> A_1  D_1  S_1
     freq (  12-  12) =         46.2  [cm-1]   --> B_1  D_3  S_3
     freq (  13-  13) =         49.2  [cm-1]   --> A_2  D_2  S_2
     freq (  14-  14) =         50.5  [cm-1]   --> B_1  D_3  S_3
     freq (  15-  15) =         51.1  [cm-1]   --> A_1  D_1  S_1
     freq (  16-  16) =         54.8  [cm-1]   --> A_2  D_2  S_2
     freq (  17-  17) =         56.0  [cm-1]   --> A_1  D_1  S_1
     freq (  18-  18) =         56.5  [cm-1]   --> B_2  D_4  S_4
     freq (  19-  19) =         59.9  [cm-1]   --> A_2  D_2  S_2
     freq (  20-  20) =         61.1  [cm-1]   --> A_1  D_1  S_1
     freq (  21-  21) =         62.4  [cm-1]   --> B_1  D_3  S_3
     freq (  22-  22) =         68.7  [cm-1]   --> A_1  D_1  S_1
     freq (  23-  23) =         73.3  [cm-1]   --> A_1  D_1  S_1
     freq (  24-  24) =         83.9  [cm-1]   --> B_1  D_3  S_3
     freq (  25-  25) =         89.1  [cm-1]   --> A_2  D_2  S_2
     freq (  26-  26) =         89.4  [cm-1]   --> B_2  D_4  S_4
     freq (  27-  27) =         98.3  [cm-1]   --> B_1  D_3  S_3
     freq (  28-  28) =        100.3  [cm-1]   --> A_1  D_1  S_1
     freq (  29-  29) =        101.0  [cm-1]   --> B_1  D_3  S_3
     freq (  30-  30) =        110.8  [cm-1]   --> B_1  D_3  S_3
     freq (  31-  31) =        113.1  [cm-1]   --> A_1  D_1  S_1
     freq (  32-  32) =        115.4  [cm-1]   --> B_2  D_4  S_4
     freq (  33-  33) =        115.6  [cm-1]   --> A_2  D_2  S_2
     freq (  34-  34) =        116.9  [cm-1]   --> B_2  D_4  S_4
     freq (  35-  35) =        118.8  [cm-1]   --> A_2  D_2  S_2
     freq (  36-  36) =        120.6  [cm-1]   --> B_1  D_3  S_3
     freq (  37-  37) =        130.4  [cm-1]   --> A_1  D_1  S_1
     freq (  38-  38) =        133.5  [cm-1]   --> B_1  D_3  S_3
     freq (  39-  39) =        133.8  [cm-1]   --> B_2  D_4  S_4
     freq (  40-  40) =        134.9  [cm-1]   --> A_1  D_1  S_1
     freq (  41-  41) =        140.2  [cm-1]   --> A_1  D_1  S_1
     freq (  42-  42) =        143.7  [cm-1]   --> B_2  D_4  S_4
     freq (  43-  43) =        159.9  [cm-1]   --> A_2  D_2  S_2
     freq (  44-  44) =        165.0  [cm-1]   --> A_2  D_2  S_2
     freq (  45-  45) =        180.0  [cm-1]   --> B_1  D_3  S_3
     freq (  46-  46) =        189.1  [cm-1]   --> A_1  D_1  S_1
     freq (  47-  47) =        213.6  [cm-1]   --> A_2  D_2  S_2
     freq (  48-  48) =        215.2  [cm-1]   --> B_2  D_4  S_4
     freq (  49-  49) =        221.6  [cm-1]   --> A_2  D_2  S_2
     freq (  50-  50) =        222.2  [cm-1]   --> B_2  D_4  S_4
     freq (  51-  51) =        278.4  [cm-1]   --> A_2  D_2  S_2
     freq (  52-  52) =        286.9  [cm-1]   --> A_2  D_2  S_2
     freq (  53-  53) =        301.6  [cm-1]   --> B_2  D_4  S_4
     freq (  54-  54) =        307.6  [cm-1]   --> B_2  D_4  S_4
     freq (  55-  55) =        320.4  [cm-1]   --> B_1  D_3  S_3
     freq (  56-  56) =        321.2  [cm-1]   --> A_1  D_1  S_1
     freq (  57-  57) =        377.6  [cm-1]   --> B_1  D_3  S_3
     freq (  58-  58) =        378.0  [cm-1]   --> A_1  D_1  S_1
     freq (  59-  59) =        472.4  [cm-1]   --> B_1  D_3  S_3
     freq (  60-  60) =        474.8  [cm-1]   --> A_1  D_1  S_1
[...]
     freq ( 136- 136) =       3014.6  [cm-1]   --> B_1  D_3  S_3
     freq ( 137- 137) =       3015.1  [cm-1]   --> B_1  D_3  S_3
     freq ( 138- 138) =       3021.9  [cm-1]   --> A_1  D_1  S_1
     freq ( 139- 139) =       3035.9  [cm-1]   --> B_2  D_4  S_4
     freq ( 140- 140) =       3036.2  [cm-1]   --> A_2  D_2  S_2
     freq ( 141- 141) =       3051.5  [cm-1]   --> B_2  D_4  S_4
     freq ( 142- 142) =       3052.8  [cm-1]   --> A_2  D_2  S_2
     freq ( 143- 143) =       3054.4  [cm-1]   --> A_2  D_2  S_2
     freq ( 144- 144) =       3054.5  [cm-1]   --> B_2  D_4  S_4
     freq ( 145- 145) =       3055.9  [cm-1]   --> B_2  D_4  S_4
     freq ( 146- 146) =       3056.9  [cm-1]   --> A_2  D_2  S_2
     freq ( 147- 147) =       3077.7  [cm-1]   --> B_1  D_3  S_3
     freq ( 148- 148) =       3078.5  [cm-1]   --> A_1  D_1  S_1
     freq ( 149- 149) =       3079.7  [cm-1]   --> B_1  D_3  S_3
     freq ( 150- 150) =       3080.4  [cm-1]   --> A_1  D_1  S_1

     General routines

     Parallel routines

     INITIALIZATION:

     DYNAMICAL MATRIX:

      General routines

   This run was terminated on:  20:53:38  21Jun2023

   JOB DONE.