     Program PWSCF v.7.1 starts on 18Jun2023 at 21:59:17

     Waiting for input...
     Reading input from standard input
Warning: card &CELL ignored
Warning: card PRESS_CONV_THR = 0.01 ignored
Warning: card / ignored

     Current dimensions of program PWSCF are:
     Max number of different atomic species (ntypx) = 10
     Max number of k-points (npk) =  40000
     Max angular momentum in pseudopotentials (lmaxx) =  4
     Message from routine setup:
     using ibrav=0 with symmetry is DISCOURAGED, use correct ibrav instead

     K-points division:     npool     =       7
     R & G space division:  proc/nbgrp/npool/nimage =      32
     Subspace diagonalization in iterative solution of the eigenvalue problem:
     a serial algorithm will be used

     Using Slab Decomposition

     bravais-lattice index     =            0
     lattice parameter (alat)  =      20.4126  a.u.
     unit-cell volume          =    4383.3143 (a.u.)^3
     number of atoms/cell      =           50
     number of atomic types    =            5
     number of electrons       =       164.00
     number of Kohn-Sham states=           82
     kinetic-energy cutoff     =      60.0000  Ry
     charge density cutoff     =     240.0000  Ry
     scf convergence threshold =      1.0E-12
     mixing beta               =       0.5000
     number of iterations used =            8  plain     mixing
     Exchange-correlation= PBE
                           (   1   4   3   4   0   0   0)

     celldm(1)=  20.412609  celldm(2)=   0.000000  celldm(3)=   0.000000
     celldm(4)=   0.000000  celldm(5)=   0.000000  celldm(6)=   0.000000

     crystal axes: (cart. coord. in units of alat)
               a(1) = (   0.675678   0.682145   0.279532 )
               a(2) = (   0.675678  -0.682145   0.279532 )
               a(3) = (   0.675678  -0.682145  -0.279532 )

     reciprocal axes: (cart. coord. in units 2 pi/alat)
               b(1) = (  0.739998  0.732982  0.000000 )
               b(2) = (  0.000000 -0.732982  1.788707 )
               b(3) = (  0.739998 -0.000000 -1.788707 )

     PseudoPot. # 1 for Pb read from file:
     /home/rkarkee/merced_home_backup/rkarkee/pseudo/Pb.upf
     MD5 check sum: 465799cf2c9ea2062203eb79f5a7a375
     Pseudo is Norm-conserving + core correction, Zval = 14.0
     Generated using ONCVPSP code by D. R. Hamann
     Using radial grid of 1678 points,  6 beta functions with:
                l(1) =   0
                l(2) =   0
                l(3) =   1
                l(4) =   1
                l(5) =   2
                l(6) =   2

     PseudoPot. # 2 for Br read from file:
     /home/rkarkee/merced_home_backup/rkarkee/pseudo/Br.upf
     MD5 check sum: 68275ccec8d7d9019ef58dac33cdd12b
     Pseudo is Norm-conserving + core correction, Zval =  7.0
     Generated using ONCVPSP code by D. R. Hamann
     Using radial grid of 1098 points,  6 beta functions with:
                l(1) =   0
                l(2) =   0
                l(3) =   1
                l(4) =   1
                l(5) =   2
                l(6) =   2

     PseudoPot. # 3 for C  read from file:
     /home/rkarkee/merced_home_backup/rkarkee/pseudo/C.upf
     MD5 check sum: 34a24e64c0a39f27c6c36b90a16ac686
     Pseudo is Norm-conserving + core correction, Zval =  4.0
     Generated using ONCVPSP code by D. R. Hamann
     Using radial grid of 1248 points,  4 beta functions with:
                l(1) =   0
                l(2) =   0
                l(3) =   1
                l(4) =   1

     PseudoPot. # 4 for H  read from file:
     /home/rkarkee/merced_home_backup/rkarkee/pseudo/H.upf
     MD5 check sum: e96aa7e3e4a958db16958554ea960e2a
     Pseudo is Norm-conserving, Zval =  1.0
     Generated using ONCVPSP code by D. R. Hamann
     Using radial grid of 1166 points,  3 beta functions with:
                l(1) =   0
                l(2) =   0
                l(3) =   1

     PseudoPot. # 5 for N  read from file:
     /home/rkarkee/merced_home_backup/rkarkee/pseudo/N.upf
     MD5 check sum: d34365f73bb0e2ee98afc20ec3e87676
     Pseudo is Norm-conserving + core correction, Zval =  5.0
     Generated using ONCVPSP code by D. R. Hamann
     Using radial grid of 1058 points,  4 beta functions with:
                l(1) =   0
                l(2) =   0
                l(3) =   1
                l(4) =   1

     atomic species   valence    mass     pseudopotential
        Pb            14.00   207.20000     Pb( 1.00)
        Br             7.00    79.90000     Br( 1.00)
        C              4.00    12.01000     C ( 1.00)
        H              1.00     1.00800     H ( 1.00)
        N              5.00    14.01000     N ( 1.00)

      8 Sym. Ops., with inversion, found ( 4 have fractional translation)

                                    s                        frac. trans.

      isym =  1     identity

 cryst.   s( 1) = (     1          0          0      )
                  (     0          1          0      )
                  (     0          0          1      )

 cart.    s( 1) = (  1.0000000 -0.0000000  0.0000000 )
                  ( -0.0000000  1.0000000 -0.0000000 )
                  ( -0.0000000  0.0000000  1.0000000 )

      isym =  2     180 deg rotation - cart. axis [0,0,1]

 cryst.   s( 2) = (    -1          1         -1      )    f =(  0.0000000 )
                  (     0          0         -1      )       (  0.5000000 )
                  (     0         -1          0      )       (  0.5000000 )

 cart.    s( 2) = ( -1.0000000 -0.0000000  0.0000000 )    f =(  0.6756779 )
                  (  0.0000000 -1.0000000 -0.0000000 )       ( -0.6821448 )
                  (  0.0000000 -0.0000000  1.0000000 )       (  0.0000000 )

[...]

      isym =  4     180 deg rotation - cart. axis [1,0,0]

[...]

      isym =  5     inversion

[...]

      isym =  6     inv. 180 deg rotation - cart. axis [0,0,1]

[...]

 cryst.   s( 7) = (     0          1          0      )
                  (     1          0          0      )
                  (     1         -1          1      )

 cart.    s( 7) = (  1.0000000 -0.0000000  0.0000000 )
                  ( -0.0000000 -1.0000000 -0.0000000 )
                  ( -0.0000000 -0.0000000  1.0000000 )

      isym =  8     inv. 180 deg rotation - cart. axis [1,0,0]

 cryst.   s( 8) = (     0          0         -1      )    f =(  0.0000000 )
                  (    -1          1         -1      )       (  0.5000000 )
                  (    -1          0          0      )       (  0.5000000 )

 cart.    s( 8) = ( -1.0000000  0.0000000  0.0000000 )    f =(  0.6756779 )
                  ( -0.0000000  1.0000000 -0.0000000 )       ( -0.6821448 )
                  (  0.0000000  0.0000000  1.0000000 )       (  0.0000000 )

   Cartesian axes

     site n.     atom                  positions (alat units)
         1           Pb  tau(   1) = (   1.5069568  -0.6821448   0.1397658  )
         2           Pb  tau(   2) = (   0.5200767  -0.0000000   0.1397658  )
         3           Br  tau(   3) = (   0.5382563   0.2793638   0.1397658  )
         4           Br  tau(   4) = (   0.5382563  -0.2793638   0.1397658  )
         5           Br  tau(   5) = (   1.4887773  -0.9615086   0.1397658  )
         6           Br  tau(   6) = (   1.4887773  -0.4027810   0.1397658  )
         7           Br  tau(   7) = (   1.2066010  -0.6821448   0.1397658  )
         8           Br  tau(   8) = (   0.8204326   0.0000000   0.1397658  )
         9           Br  tau(   9) = (   1.0998823  -0.0000000   0.4192973  )
        10           Br  tau(  10) = (   0.9271513  -0.6821448  -0.1397658  )
        11           C   tau(  11) = (   1.0430767  -0.2771848   0.1397658  )
        12           C   tau(  12) = (   1.0430767   0.2771848   0.1397658  )
        13           C   tau(  13) = (   0.9839569  -0.4049600   0.1397658  )
        14           C   tau(  14) = (   0.9839569  -0.9593296   0.1397658  )
        15           C   tau(  15) = (   1.2433327  -0.1667850   0.1397658  )
        16           C   tau(  16) = (   0.5676549  -0.5153598  -0.1397658  )
        17           C   tau(  17) = (   0.7837008  -0.5153598   0.1397658  )
        18           C   tau(  18) = (   1.4593787  -0.1667850   0.4192973  )
        19           H   tau(  19) = (   1.0098022  -0.4578009   0.0569489  )
        20           H   tau(  20) = (   0.3341243  -0.2243440  -0.0569489  )
        21           H   tau(  21) = (   1.0172314  -0.2243440   0.0569489  )
        22           H   tau(  22) = (   1.0172314   0.2243440   0.2225827  )
        23           H   tau(  23) = (   1.0172314  -0.2243440   0.2225827  )
        24           H   tau(  24) = (   1.6929092  -0.4578009   0.3364804  )
        25           H   tau(  25) = (   1.0098022  -0.4578009   0.2225827  )
        26           H   tau(  26) = (   1.0098022  -0.9064888   0.0569489  )
        27           H   tau(  27) = (   1.3433728  -0.1822476   0.1397658  )
        28           H   tau(  28) = (   0.6676950  -0.4998972  -0.1397658  )
        29           H   tau(  29) = (   0.6836608  -0.4998972   0.1397658  )
        30           H   tau(  30) = (   1.3593386  -0.1822476   0.4192973  )
        31           H   tau(  31) = (   0.8125536  -0.5657262   0.2229340  )
        32           H   tau(  32) = (   0.8125536  -0.7985634   0.0565975  )
        33           H   tau(  33) = (   1.2144800  -0.1164186   0.2229340  )
        34           H   tau(  34) = (   1.2144800   0.1164186   0.0565975  )
        35           H   tau(  35) = (   1.2144800  -0.1164186   0.0565975  )
        36           H   tau(  36) = (   1.2144800   0.1164186   0.2229340  )
        37           H   tau(  37) = (   0.8125536  -0.5657262   0.0565975  )
        38           H   tau(  38) = (   0.8125536  -0.7985634   0.2229340  )
        39           H   tau(  39) = (   0.8195413  -0.3431038   0.0611649  )
        40           H   tau(  40) = (   0.8195413   0.3431038   0.2183666  )
        41           H   tau(  41) = (   1.2074922  -0.3390410   0.0611649  )
        42           H   tau(  42) = (   0.5318144  -0.3431038  -0.0611649  )
        43           H   tau(  43) = (   1.2074922  -0.3390410   0.2183666  )
        44           H   tau(  44) = (   1.2074922  -1.0252487   0.0611649  )
        45           H   tau(  45) = (   0.8195413  -0.3431038   0.2183666  )
        46           H   tau(  46) = (   1.4952192  -0.3390410   0.3406965  )
        47           N   tau(  47) = (   1.1803945  -0.2893393   0.1397658  )
        48           N   tau(  48) = (   0.5047166  -0.3928055  -0.1397658  )
        49           N   tau(  49) = (   0.8466391  -0.3928055   0.1397658  )
        50           N   tau(  50) = (   1.5223170  -0.2893393   0.4192973  )

   Crystallographic axes

     site n.     atom                  positions (cryst. coord.)
         1           Pb  tau(   1) = (  0.6151445  0.7500000  0.8651445  )
         2           Pb  tau(   2) = (  0.3848555  0.2500000  0.1348555  )
         3           Br  tau(   3) = (  0.6030770  0.0452313  0.1483084  )
         4           Br  tau(   4) = (  0.1935397  0.4547687  0.1483084  )
         5           Br  tau(   5) = (  0.3969230  0.9547687  0.8516916  )
[...]
     atom   36 type  4   force =    -0.16735151   -1.55872810    1.73015709
     atom   37 type  4   force =     0.16735148   -1.55872809   -1.73015710
     atom   38 type  4   force =     0.16735150    1.55872810    1.73015709
     atom   39 type  4   force =    -1.06340742    1.36064585   -2.15072531
     atom   40 type  4   force =    -1.06340742   -1.36064586    2.15072536
     atom   41 type  4   force =     1.06340742   -1.36064586   -2.15072536
     atom   42 type  4   force =     1.06340741    1.36064588    2.15072536
     atom   43 type  4   force =     1.06340742   -1.36064586    2.15072535
     atom   44 type  4   force =     1.06340740    1.36064586   -2.15072534
     atom   45 type  4   force =    -1.06340743    1.36064587    2.15072533
     atom   46 type  4   force =    -1.06340743   -1.36064586   -2.15072536
     atom   47 type  5   force =     2.56331361   -0.77442537    0.00000000
     atom   48 type  5   force =     2.56331367    0.77442534   -0.00000001
     atom   49 type  5   force =    -2.56331367    0.77442538   -0.00000001
     atom   50 type  5   force =    -2.56331370   -0.77442536    0.00000001
     The local contribution  to forces
     atom    1 type  1   force =    -2.34766503   -0.00000000   -0.00000000
     atom    2 type  1   force =     2.34766503   -0.00000000   -0.00000000
     atom    3 type  2   force =     0.31551618   -2.35010039    0.00000000
     atom    4 type  2   force =     0.31551620    2.35010053    0.00000000
     atom    5 type  2   force =    -0.31551627    2.35010045   -0.00000003
     atom    6 type  2   force =    -0.31551628   -2.35010047   -0.00000003
     atom    7 type  2   force =     2.42441597   -0.00000000   -0.00000000
     atom    8 type  2   force =    -2.42441597   -0.00000000    0.00000000
     atom    9 type  2   force =    -4.33636828    0.00000000    0.00000000
     atom   10 type  2   force =     4.33636828   -0.00000000    0.00000000
     atom   11 type  3   force =     1.56042109   -2.66387795    0.00000001
     atom   12 type  3   force =     1.56042108    2.66387797   -0.00000000
     atom   13 type  3   force =    -1.56042109    2.66387795   -0.00000001
     atom   14 type  3   force =    -1.56042108   -2.66387797   -0.00000000
     atom   15 type  3   force =    -2.56694089   -4.28052160   -0.00000000
     atom   16 type  3   force =    -2.56694086    4.28052176   -0.00000000
     atom   17 type  3   force =     2.56694078    4.28052170   -0.00000005
     atom   18 type  3   force =     2.56694078   -4.28052170   -0.00000005
     atom   19 type  4   force =    -0.54518360    1.42431913    1.79857674
     atom   20 type  4   force =    -0.54518360   -1.42431912   -1.79857674
     atom   21 type  4   force =     0.54518360   -1.42431913    1.79857674
     atom   22 type  4   force =     0.54518360    1.42431912   -1.79857674
     atom   23 type  4   force =     0.54518360   -1.42431913   -1.79857674
     atom   24 type  4   force =     0.54518360    1.42431912    1.79857674
     atom   25 type  4   force =    -0.54518360    1.42431913   -1.79857674
     atom   26 type  4   force =    -0.54518360   -1.42431912    1.79857674
     atom   27 type  4   force =    -2.07281263   -0.40091784   -0.00000000
     atom   28 type  4   force =    -2.07281263    0.40091783   -0.00000000
     atom   29 type  4   force =     2.07281263    0.40091784   -0.00000000
     atom   30 type  4   force =     2.07281263   -0.40091783    0.00000000
     atom   31 type  4   force =    -0.12611101    1.48266654   -1.60908011
     atom   32 type  4   force =    -0.12611102   -1.48266654    1.60908011
     atom   33 type  4   force =     0.12611098   -1.48266652   -1.60908014
     atom   34 type  4   force =     0.12611105    1.48266651    1.60908013
     atom   35 type  4   force =     0.12611101   -1.48266654    1.60908011
     atom   36 type  4   force =     0.12611102    1.48266654   -1.60908011
     atom   37 type  4   force =    -0.12611098    1.48266652    1.60908014
     atom   38 type  4   force =    -0.12611105   -1.48266651   -1.60908013
     atom   39 type  4   force =     1.01318307   -1.27084875    2.00921407
     atom   40 type  4   force =     1.01318303    1.27084872   -2.00921411
     atom   41 type  4   force =    -1.01318306    1.27084875    2.00921408
     atom   42 type  4   force =    -1.01318305   -1.27084874   -2.00921411
     atom   43 type  4   force =    -1.01318307    1.27084875   -2.00921407
     atom   44 type  4   force =    -1.01318303   -1.27084872    2.00921411
     atom   45 type  4   force =     1.01318306   -1.27084875   -2.00921408
     atom   46 type  4   force =     1.01318305    1.27084874    2.00921411
     atom   47 type  5   force =    -2.49542419    0.71407712   -0.00000001
     atom   48 type  5   force =    -2.49542414   -0.71407665   -0.00000000
     atom   49 type  5   force =     2.49542395   -0.71407686   -0.00000010
     atom   50 type  5   force =     2.49542393    0.71407688   -0.00000011
     The core correction contribution to forces
     atom    1 type  1   force =    -0.00334943   -0.00000000   -0.00000000
     atom    2 type  1   force =     0.00334943   -0.00000000   -0.00000000
     atom    3 type  2   force =     0.00010678    0.00207484   -0.00000000
     atom    4 type  2   force =     0.00010678   -0.00207485   -0.00000000
     atom    5 type  2   force =    -0.00010678   -0.00207484    0.00000000
     atom    6 type  2   force =    -0.00010678    0.00207485    0.00000000
     atom    7 type  2   force =    -0.00241720   -0.00000000   -0.00000000
     atom    8 type  2   force =     0.00241720   -0.00000000    0.00000000
     atom    9 type  2   force =     0.00507362   -0.00000000    0.00000000
     atom   10 type  2   force =    -0.00507362    0.00000000   -0.00000000
     atom   11 type  3   force =    -0.01528420    0.00817204   -0.00000000
     atom   12 type  3   force =    -0.01528420   -0.00817204   -0.00000000
     atom   13 type  3   force =     0.01528420   -0.00817204    0.00000000
     atom   14 type  3   force =     0.01528420    0.00817204    0.00000000
     atom   15 type  3   force =     0.00784035    0.01671328    0.00000000
     atom   16 type  3   force =     0.00784035   -0.01671329    0.00000000
     atom   17 type  3   force =    -0.00784034   -0.01671329    0.00000000
     atom   18 type  3   force =    -0.00784034    0.01671329    0.00000000
     atom   19 type  4   force =     0.00000000    0.00000000    0.00000000
     atom   20 type  4   force =     0.00000000    0.00000000    0.00000000
     atom   21 type  4   force =     0.00000000    0.00000000    0.00000000
     atom   22 type  4   force =     0.00000000    0.00000000    0.00000000
     atom   23 type  4   force =     0.00000000    0.00000000    0.00000000
     atom   24 type  4   force =     0.00000000    0.00000000    0.00000000
     atom   25 type  4   force =     0.00000000    0.00000000    0.00000000
     atom   26 type  4   force =     0.00000000    0.00000000    0.00000000
     atom   27 type  4   force =     0.00000000    0.00000000    0.00000000
     atom   28 type  4   force =     0.00000000    0.00000000    0.00000000
     atom   29 type  4   force =     0.00000000    0.00000000    0.00000000
     atom   30 type  4   force =     0.00000000    0.00000000    0.00000000
     atom   31 type  4   force =     0.00000000    0.00000000    0.00000000
     atom   32 type  4   force =     0.00000000    0.00000000    0.00000000
     atom   33 type  4   force =     0.00000000    0.00000000    0.00000000
     atom   34 type  4   force =     0.00000000    0.00000000    0.00000000
     atom   35 type  4   force =     0.00000000    0.00000000    0.00000000
     atom   36 type  4   force =     0.00000000    0.00000000    0.00000000
     atom   37 type  4   force =     0.00000000    0.00000000    0.00000000
     atom   38 type  4   force =     0.00000000    0.00000000    0.00000000
     atom   39 type  4   force =     0.00000000    0.00000000    0.00000000
     atom   40 type  4   force =     0.00000000    0.00000000    0.00000000
     atom   41 type  4   force =     0.00000000    0.00000000    0.00000000
     atom   42 type  4   force =     0.00000000    0.00000000    0.00000000
     atom   43 type  4   force =     0.00000000    0.00000000    0.00000000
     atom   44 type  4   force =     0.00000000    0.00000000    0.00000000
     atom   45 type  4   force =     0.00000000    0.00000000    0.00000000
     atom   46 type  4   force =     0.00000000    0.00000000    0.00000000
     atom   47 type  5   force =     0.00466821   -0.00712555    0.00000000
     atom   48 type  5   force =     0.00466820    0.00712553    0.00000000
     atom   49 type  5   force =    -0.00466820    0.00712554    0.00000000
     atom   50 type  5   force =    -0.00466820   -0.00712554    0.00000000
     The Hubbard contrib.    to forces
     atom    1 type  1   force =     0.00000000    0.00000000    0.00000000
     atom    2 type  1   force =     0.00000000    0.00000000    0.00000000
     atom    3 type  2   force =     0.00000000    0.00000000    0.00000000
     atom    4 type  2   force =     0.00000000    0.00000000    0.00000000
     atom    5 type  2   force =     0.00000000    0.00000000    0.00000000
     atom    6 type  2   force =     0.00000000    0.00000000    0.00000000
     atom    7 type  2   force =     0.00000000    0.00000000    0.00000000
     atom    8 type  2   force =     0.00000000    0.00000000    0.00000000
     atom    9 type  2   force =     0.00000000    0.00000000    0.00000000
     atom   10 type  2   force =     0.00000000    0.00000000    0.00000000
     atom   11 type  3   force =     0.00000000    0.00000000    0.00000000
     atom   12 type  3   force =     0.00000000    0.00000000    0.00000000
     atom   13 type  3   force =     0.00000000    0.00000000    0.00000000
     atom   14 type  3   force =     0.00000000    0.00000000    0.00000000
     atom   15 type  3   force =     0.00000000    0.00000000    0.00000000
     atom   16 type  3   force =     0.00000000    0.00000000    0.00000000
     atom   17 type  3   force =     0.00000000    0.00000000    0.00000000
     atom   18 type  3   force =     0.00000000    0.00000000    0.00000000
     atom   19 type  4   force =     0.00000000    0.00000000    0.00000000
     atom   20 type  4   force =     0.00000000    0.00000000    0.00000000
     atom   21 type  4   force =     0.00000000    0.00000000    0.00000000
     atom   22 type  4   force =     0.00000000    0.00000000    0.00000000
     atom   23 type  4   force =     0.00000000    0.00000000    0.00000000
     atom   24 type  4   force =     0.00000000    0.00000000    0.00000000
     atom   25 type  4   force =     0.00000000    0.00000000    0.00000000
     atom   26 type  4   force =     0.00000000    0.00000000    0.00000000
     atom   27 type  4   force =     0.00000000    0.00000000    0.00000000
     atom   28 type  4   force =     0.00000000    0.00000000    0.00000000
     atom   29 type  4   force =     0.00000000    0.00000000    0.00000000
     atom   30 type  4   force =     0.00000000    0.00000000    0.00000000
     atom   31 type  4   force =     0.00000000    0.00000000    0.00000000
     atom   32 type  4   force =     0.00000000    0.00000000    0.00000000
     atom   33 type  4   force =     0.00000000    0.00000000    0.00000000
     atom   34 type  4   force =     0.00000000    0.00000000    0.00000000
     atom   35 type  4   force =     0.00000000    0.00000000    0.00000000
     atom   36 type  4   force =     0.00000000    0.00000000    0.00000000
     atom   37 type  4   force =     0.00000000    0.00000000    0.00000000
     atom   38 type  4   force =     0.00000000    0.00000000    0.00000000
     atom   39 type  4   force =     0.00000000    0.00000000    0.00000000
     atom   40 type  4   force =     0.00000000    0.00000000    0.00000000
     atom   41 type  4   force =     0.00000000    0.00000000    0.00000000
     atom   42 type  4   force =     0.00000000    0.00000000    0.00000000
     atom   43 type  4   force =     0.00000000    0.00000000    0.00000000
     atom   44 type  4   force =     0.00000000    0.00000000    0.00000000
     atom   45 type  4   force =     0.00000000    0.00000000    0.00000000
     atom   46 type  4   force =     0.00000000    0.00000000    0.00000000
     atom   47 type  5   force =     0.00000000    0.00000000    0.00000000
     atom   48 type  5   force =     0.00000000    0.00000000    0.00000000
     atom   49 type  5   force =     0.00000000    0.00000000    0.00000000
     atom   50 type  5   force =     0.00000000    0.00000000    0.00000000
     The SCF correction term to forces
     atom    1 type  1   force =     0.00000044   -0.00000000   -0.00000000
     atom    2 type  1   force =    -0.00000044   -0.00000000    0.00000000
     atom    3 type  2   force =     0.00000008    0.00000031    0.00000000
     atom    4 type  2   force =     0.00000008   -0.00000031    0.00000000
     atom    5 type  2   force =    -0.00000008   -0.00000031   -0.00000000
     atom    6 type  2   force =    -0.00000008    0.00000031   -0.00000000
     atom    7 type  2   force =    -0.00000044   -0.00000000   -0.00000000
     atom    8 type  2   force =     0.00000044   -0.00000000    0.00000000
     atom    9 type  2   force =     0.00000042   -0.00000000   -0.00000000
     atom   10 type  2   force =    -0.00000042    0.00000000    0.00000000
     atom   11 type  3   force =    -0.00000006   -0.00000017    0.00000000
     atom   12 type  3   force =    -0.00000006    0.00000017    0.00000000
     atom   13 type  3   force =     0.00000006    0.00000017   -0.00000000
     atom   14 type  3   force =     0.00000006   -0.00000017   -0.00000000
     atom   15 type  3   force =     0.00000003    0.00000007   -0.00000000
     atom   16 type  3   force =     0.00000003   -0.00000007    0.00000000
     atom   17 type  3   force =    -0.00000003   -0.00000007   -0.00000000
     atom   18 type  3   force =    -0.00000003    0.00000007   -0.00000000
     atom   19 type  4   force =    -0.00000002    0.00000004    0.00000002
     atom   20 type  4   force =    -0.00000002   -0.00000004   -0.00000002
     atom   21 type  4   force =     0.00000002   -0.00000004    0.00000002
     atom   22 type  4   force =     0.00000002    0.00000004   -0.00000002
     atom   23 type  4   force =     0.00000002   -0.00000004   -0.00000002
     atom   24 type  4   force =     0.00000002    0.00000004    0.00000002
     atom   25 type  4   force =    -0.00000002    0.00000004   -0.00000002
     atom   26 type  4   force =    -0.00000002   -0.00000004    0.00000002
     atom   27 type  4   force =    -0.00000004    0.00000001   -0.00000000
     atom   28 type  4   force =    -0.00000004   -0.00000001   -0.00000000
     atom   29 type  4   force =     0.00000004   -0.00000001   -0.00000000
     atom   30 type  4   force =     0.00000004    0.00000001   -0.00000000
     atom   31 type  4   force =    -0.00000003    0.00000002   -0.00000004
     atom   32 type  4   force =    -0.00000003   -0.00000002    0.00000004
     atom   33 type  4   force =     0.00000003   -0.00000002   -0.00000004
     atom   34 type  4   force =     0.00000003    0.00000002    0.00000004
     atom   35 type  4   force =     0.00000003   -0.00000002    0.00000004
     atom   36 type  4   force =     0.00000003    0.00000002   -0.00000004
     atom   37 type  4   force =    -0.00000003    0.00000002    0.00000004
     atom   38 type  4   force =    -0.00000003   -0.00000002   -0.00000004
     atom   39 type  4   force =    -0.00000001   -0.00000000   -0.00000006
     atom   40 type  4   force =    -0.00000001    0.00000000    0.00000006
     atom   41 type  4   force =     0.00000001    0.00000000   -0.00000006
     atom   42 type  4   force =     0.00000001   -0.00000000    0.00000006
     atom   43 type  4   force =     0.00000001    0.00000000    0.00000006
     atom   44 type  4   force =     0.00000001   -0.00000000   -0.00000006
     atom   45 type  4   force =    -0.00000001   -0.00000000    0.00000006
     atom   46 type  4   force =    -0.00000001    0.00000000   -0.00000006
     atom   47 type  5   force =    -0.00000008    0.00000031    0.00000000
     atom   48 type  5   force =    -0.00000008   -0.00000031    0.00000000
     atom   49 type  5   force =     0.00000008   -0.00000031   -0.00000000
     atom   50 type  5   force =     0.00000008    0.00000031   -0.00000000

     Total force =     0.000087     Total SCF correction =     0.000001

     Writing all to output data dir ./scf.save/

     General routines

     Parallel routines

   This run was terminated on:  21:59:29  18Jun2023

   JOB DONE.