     Program PWSCF v.6.1 (svn rev. 13369) starts on 16Mar2023 at 10:31:20

     Current dimensions of program PWSCF are:
     Max number of different atomic species (ntypx) = 10
     Max number of k-points (npk) =  40000
     Max angular momentum in pseudopotentials (lmaxx) =  3

     Subspace diagonalization in iterative solution of the eigenvalue problem:
     a serial algorithm will be used

     bravais-lattice index     =            0
     lattice parameter (alat)  =      20.4141  a.u.
     unit-cell volume          =    4384.1881 (a.u.)^3
     number of atoms/cell      =           50
     number of atomic types    =            5
     number of electrons       =       164.00
     number of Kohn-Sham states=           82
     kinetic-energy cutoff     =      60.0000  Ry
     charge density cutoff     =     240.0000  Ry
     convergence threshold     =      1.0E-10
     mixing beta               =       0.5000
     number of iterations used =            8  plain     mixing
     Exchange-correlation      = PBE ( 1  4  3  4 0 0)

     celldm(1)=  20.414083  celldm(2)=   0.000000  celldm(3)=   0.000000
     celldm(4)=   0.000000  celldm(5)=   0.000000  celldm(6)=   0.000000

     crystal axes: (cart. coord. in units of alat)
               a(1) = (   0.676213   0.681619   0.279521 )
               a(2) = (   0.676213  -0.681619   0.279521 )
               a(3) = (   0.676213  -0.681619  -0.279521 )

     reciprocal axes: (cart. coord. in units 2 pi/alat)
               b(1) = (  0.739412  0.733548  0.000000 )
               b(2) = (  0.000000 -0.733548  1.788774 )
               b(3) = (  0.739412  0.000000 -1.788774 )

     PseudoPot. # 1 for Pb read from file:
     /home/rkarkee/merced_home_backup/rkarkee/pseudo/Pb.upf
     MD5 check sum: 465799cf2c9ea2062203eb79f5a7a375
     Pseudo is Norm-conserving + core correction, Zval = 14.0
     Generated using ONCVPSP code by D. R. Hamann
     Using radial grid of 1678 points,  6 beta functions with:
                l(1) =   0
                l(2) =   0
                l(3) =   1
                l(4) =   1
                l(5) =   2
                l(6) =   2

     PseudoPot. # 2 for Br read from file:
     /home/rkarkee/merced_home_backup/rkarkee/pseudo/Br.upf
     MD5 check sum: 68275ccec8d7d9019ef58dac33cdd12b
     Pseudo is Norm-conserving + core correction, Zval =  7.0
     Generated using ONCVPSP code by D. R. Hamann
     Using radial grid of 1098 points,  6 beta functions with:
                l(1) =   0
                l(2) =   0
                l(3) =   1
                l(4) =   1
                l(5) =   2
                l(6) =   2

     PseudoPot. # 3 for C  read from file:
     /home/rkarkee/merced_home_backup/rkarkee/pseudo/C.upf
     MD5 check sum: 34a24e64c0a39f27c6c36b90a16ac686
     Pseudo is Norm-conserving + core correction, Zval =  4.0
     Generated using ONCVPSP code by D. R. Hamann
     Using radial grid of 1248 points,  4 beta functions with:
                l(1) =   0
                l(2) =   0
                l(3) =   1
                l(4) =   1

     PseudoPot. # 4 for H  read from file:
     /home/rkarkee/merced_home_backup/rkarkee/pseudo/H.upf
     MD5 check sum: e96aa7e3e4a958db16958554ea960e2a
     Pseudo is Norm-conserving, Zval =  1.0
     Generated using ONCVPSP code by D. R. Hamann
     Using radial grid of 1166 points,  3 beta functions with:
                l(1) =   0
                l(2) =   0
                l(3) =   1

     PseudoPot. # 5 for N  read from file:
     /home/rkarkee/merced_home_backup/rkarkee/pseudo/N.upf
     MD5 check sum: d34365f73bb0e2ee98afc20ec3e87676
     Pseudo is Norm-conserving + core correction, Zval =  5.0
     Generated using ONCVPSP code by D. R. Hamann
     Using radial grid of 1058 points,  4 beta functions with:
                l(1) =   0
                l(2) =   0
                l(3) =   1
                l(4) =   1

     atomic species   valence    mass     pseudopotential
        Pb            14.00   207.20000     Pb( 1.00)
        Br             7.00    79.90000     Br( 1.00)
        C              4.00    12.01000     C ( 1.00)
        H              1.00     1.00800     H ( 1.00)
        N              5.00    14.01000     N ( 1.00)

      8 Sym. Ops., with inversion, found ( 4 have fractional translation)

                                    s                        frac. trans.

      isym =  1     identity

 cryst.   s( 1) = (     1          0          0      )
                  (     0          1          0      )
                  (     0          0          1      )

 cart.    s( 1) = (  1.0000000  0.0000000  0.0000000 )
                  (  0.0000000  1.0000000  0.0000000 )
                  (  0.0000000  0.0000000  1.0000000 )

      isym =  2     180 deg rotation - cart. axis [0,0,1]

 cryst.   s( 2) = (    -1          1         -1      )    f =( -0.0000000 )
                  (     0          0         -1      )       ( -0.5000000 )
                  (     0         -1          0      )       ( -0.4999999 )

 cart.    s( 2) = ( -1.0000000  0.0000000  0.0000000 )    f =( -0.6762126 )
                  (  0.0000000 -1.0000000  0.0000000 )       (  0.6816189 )
                  (  0.0000000  0.0000000  1.0000000 )       ( -0.0000000 )

[...]

      isym =  4     180 deg rotation - cart. axis [1,0,0]

[...]

      isym =  5     inversion

[...]

      isym =  6     inv. 180 deg rotation - cart. axis [0,0,1]

[...]

 cryst.   s( 7) = (     0          1          0      )
                  (     1          0          0      )
                  (     1         -1          1      )

 cart.    s( 7) = (  1.0000000  0.0000000  0.0000000 )
                  (  0.0000000 -1.0000000  0.0000000 )
                  (  0.0000000  0.0000000  1.0000000 )

      isym =  8     inv. 180 deg rotation - cart. axis [1,0,0]

 cryst.   s( 8) = (     0          0         -1      )    f =( -0.0000000 )
                  (    -1          1         -1      )       ( -0.5000000 )
                  (    -1          0          0      )       ( -0.4999999 )

 cart.    s( 8) = ( -1.0000000  0.0000000  0.0000000 )    f =( -0.6762126 )
                  (  0.0000000  1.0000000  0.0000000 )       (  0.6816189 )
                  (  0.0000000  0.0000000  1.0000000 )       ( -0.0000000 )

   Cartesian axes

     site n.     atom                  positions (alat units)
         1           Pb  tau(   1) = (   0.8317482  -0.6816189   0.1397606  )
         2           Pb  tau(   2) = (   1.1968897   0.0000000   0.1397605  )
         3           Br  tau(   3) = (   1.2149985  -0.2792916   0.1397605  )
         4           Br  tau(   4) = (   0.5387859  -0.4023273  -0.1397606  )
         5           Br  tau(   5) = (   0.8136394  -0.4023273   0.1397606  )
         6           Br  tau(   6) = (   1.4898521  -0.2792917   0.4192817  )
         7           Br  tau(   7) = (   1.2082928   0.0000000   0.4192817  )
         8           Br  tau(   8) = (   0.8203451  -0.6816189  -0.1397605  )
         9           Br  tau(   9) = (   1.1003979  -0.6816189   0.1397606  )
        10           Br  tau(  10) = (   0.9282401  -0.0000000   0.1397606  )
        11           C   tau(  11) = (   0.3676678   0.2769280   0.1397606  )
        12           C   tau(  12) = (   0.3676679  -0.2769280   0.1397606  )
        13           C   tau(  13) = (   1.6609701  -0.9585469   0.1397606  )
        14           C   tau(  14) = (   1.6609701  -0.4046909   0.1397606  )
        15           C   tau(  15) = (   1.4607254  -0.8481746   0.1397606  )
        16           C   tau(  16) = (   1.4607253  -0.5150633   0.1397605  )
        17           C   tau(  17) = (   0.5679126   0.1665556   0.1397606  )
        18           C   tau(  18) = (   0.5679126  -0.1665556   0.1397606  )
        19           H   tau(  19) = (   1.0105999  -0.2240787   0.3364777  )
        20           H   tau(  20) = (   1.6868126  -0.4575402   0.2225646  )
        21           H   tau(  21) = (   1.0180380  -0.4575403   0.3364777  )
        22           H   tau(  22) = (   1.0180381  -0.9056976  -0.0569565  )
        23           H   tau(  23) = (   1.0180380  -0.4575403  -0.0569565  )
        24           H   tau(  24) = (   0.3418254  -0.2240787   0.0569565  )
        25           H   tau(  25) = (   1.0105999  -0.2240786  -0.0569565  )
        26           H   tau(  26) = (   1.0106000   0.2240787   0.3364777  )
        27           H   tau(  27) = (   1.3606944  -0.8636512   0.1397606  )
        28           H   tau(  28) = (   1.3606944  -0.4995868   0.1397605  )
        29           H   tau(  29) = (   0.6679435   0.1820322   0.1397606  )
        30           H   tau(  30) = (   0.6679435  -0.1820322   0.1397606  )
        31           H   tau(  31) = (   1.4895790  -0.7978198   0.2229268  )
        32           H   tau(  32) = (   0.8133665   0.1162008   0.3361155  )
        33           H   tau(  33) = (   1.2152715  -0.5654182  -0.0565944  )
        34           H   tau(  34) = (   0.5390588  -0.1162009   0.0565944  )
        35           H   tau(  35) = (   0.5390589   0.1162008   0.0565944  )
        36           H   tau(  36) = (   1.2152715  -0.7978198  -0.0565944  )
        37           H   tau(  37) = (   0.8133664  -0.1162008   0.3361155  )
        38           H   tau(  38) = (   1.4895790  -0.5654181   0.2229267  )
        39           H   tau(  39) = (   0.5320732   0.3387958   0.2183495  )
        40           H   tau(  40) = (   0.5320732  -0.3387958   0.0611716  )
        41           H   tau(  41) = (   0.8203521  -0.3387958  -0.0611716  )
        42           H   tau(  42) = (   1.4965649  -0.3428231   0.0611716  )
        43           H   tau(  43) = (   1.4965649  -1.0204147   0.0611716  )
        44           H   tau(  44) = (   1.4965647  -0.3428231   0.2183496  )
        45           H   tau(  45) = (   1.2082858  -0.3428231   0.3406927  )
        46           H   tau(  46) = (   0.5320732  -0.3387958   0.2183495  )
        47           N   tau(  47) = (   1.5236660  -0.9707154   0.1397605  )
        48           N   tau(  48) = (   1.5236659  -0.3925223   0.1397606  )
        49           N   tau(  49) = (   0.5049720   0.2890966   0.1397606  )
        50           N   tau(  50) = (   0.5049720  -0.2890965   0.1397606  )

   Crystallographic axes

     site n.     atom                  positions (cryst. coord.)
         1           Pb  tau(   1) = (  0.1150049  0.7500000  0.3650049  )
         2           Pb  tau(   2) = (  0.8849951  0.2500000  0.6349951  )
         3           Br  tau(   3) = (  0.6935112  0.4548737  0.6483849  )
         4           Br  tau(   4) = (  0.1032586  0.0451263  0.6483849  )
         5           Br  tau(   5) = (  0.3064888  0.5451263  0.3516151  )
         6           Br  tau(   6) = (  0.8967413  0.9548738  0.3516150  )
         7           Br  tau(   7) = (  0.8934266  0.7500000  0.1434266  )
         8           Br  tau(   8) = (  0.1065734  0.2500000  0.8565733  )
         9           Br  tau(   9) = (  0.3136479  0.7500000  0.5636478  )
        10           Br  tau(  10) = (  0.6863522  0.2500000  0.4363522  )
        11           C   tau(  11) = (  0.4749980  0.0468601  0.0218582  )
[...]
     atom   17 type  3   force =    -2.57280199    4.28120573    0.00000104
     atom   18 type  3   force =    -2.57281065   -4.28119851    0.00000276
     atom   19 type  4   force =    -0.54502716   -1.42485107    1.79845023
     atom   20 type  4   force =    -0.54502842    1.42484957   -1.79845161
     atom   21 type  4   force =     0.54502518    1.42485262    1.79845045
     atom   22 type  4   force =     0.54502436   -1.42485143   -1.79845232
     atom   23 type  4   force =     0.54502758    1.42485089   -1.79845004
     atom   24 type  4   force =     0.54502563   -1.42484912    1.79845167
     atom   25 type  4   force =    -0.54502474   -1.42485125   -1.79845078
     atom   26 type  4   force =    -0.54502928    1.42484937    1.79844932
     atom   27 type  4   force =     2.07403525   -0.40173684    0.00000055
     atom   28 type  4   force =     2.07403569    0.40174014    0.00000132
     atom   29 type  4   force =    -2.07403454    0.40174050    0.00000002
     atom   30 type  4   force =    -2.07403436   -0.40173999    0.00000114
     atom   31 type  4   force =    -0.12469029   -1.48200942   -1.61023182
     atom   32 type  4   force =    -0.12469580    1.48201156    1.61022887
     atom   33 type  4   force =     0.12469230    1.48201278   -1.61022810
     atom   34 type  4   force =     0.12469307   -1.48200882    1.61023130
     atom   35 type  4   force =     0.12469144    1.48201221    1.61022910
     atom   36 type  4   force =     0.12469241   -1.48200876   -1.61023116
     atom   37 type  4   force =    -0.12469249   -1.48201060    1.61023051
     atom   38 type  4   force =    -0.12469055    1.48201267   -1.61022894
     atom   39 type  4   force =    -1.01323681   -1.26967983   -2.00899515
     atom   40 type  4   force =    -1.01323569    1.26968073    2.00899337
     atom   41 type  4   force =     1.01323717    1.26968031   -2.00899366
     atom   42 type  4   force =     1.01322929   -1.26968260    2.00899529
     atom   43 type  4   force =     1.01322981    1.26968039    2.00899779
     atom   44 type  4   force =     1.01323697   -1.26968179   -2.00899333
     atom   45 type  4   force =    -1.01323618   -1.26967949    2.00899490
     atom   46 type  4   force =    -1.01323736    1.26968077   -2.00899384
     atom   47 type  5   force =     2.49658484    0.70992323    0.00001645
     atom   48 type  5   force =     2.49659208   -0.70998043    0.00000485
     atom   49 type  5   force =    -2.49657921   -0.70994853    0.00000254
     atom   50 type  5   force =    -2.49658544    0.70995896    0.00000343
     The core correction contribution to forces
     atom    1 type  1   force =    -0.00328961   -0.00000183    0.00000008
     atom    2 type  1   force =     0.00329102    0.00000129    0.00000099
     atom    3 type  2   force =     0.00011843   -0.00207748   -0.00000020
     atom    4 type  2   force =     0.00011888    0.00207713   -0.00000013
     atom    5 type  2   force =    -0.00011885    0.00207710   -0.00000006
     atom    6 type  2   force =    -0.00011882   -0.00207828    0.00000024
     atom    7 type  2   force =    -0.00239026    0.00000007    0.00000013
     atom    8 type  2   force =     0.00238974    0.00000003    0.00000022
     atom    9 type  2   force =     0.00504495    0.00000015   -0.00000004
     atom   10 type  2   force =    -0.00504418   -0.00000032   -0.00000009
     atom   11 type  3   force =    -0.01527979   -0.00816999   -0.00000006
     atom   12 type  3   force =    -0.01527976    0.00816977   -0.00000007
     atom   13 type  3   force =     0.01527980    0.00816990   -0.00000002
     atom   14 type  3   force =     0.01527974   -0.00816970    0.00000012
     atom   15 type  3   force =    -0.00783757    0.01670941    0.00000011
     atom   16 type  3   force =    -0.00783785   -0.01670955   -0.00000017
     atom   17 type  3   force =     0.00783769   -0.01670968   -0.00000001
     atom   18 type  3   force =     0.00783795    0.01670948   -0.00000003
     atom   19 type  4   force =     0.00000000    0.00000000    0.00000000
     atom   20 type  4   force =     0.00000000    0.00000000    0.00000000
     atom   21 type  4   force =     0.00000000    0.00000000    0.00000000
     atom   22 type  4   force =     0.00000000    0.00000000    0.00000000
     atom   23 type  4   force =     0.00000000    0.00000000    0.00000000
     atom   24 type  4   force =     0.00000000    0.00000000    0.00000000
     atom   25 type  4   force =     0.00000000    0.00000000    0.00000000
     atom   26 type  4   force =     0.00000000    0.00000000    0.00000000
     atom   27 type  4   force =     0.00000000    0.00000000    0.00000000
     atom   28 type  4   force =     0.00000000    0.00000000    0.00000000
     atom   29 type  4   force =     0.00000000    0.00000000    0.00000000
     atom   30 type  4   force =     0.00000000    0.00000000    0.00000000
     atom   31 type  4   force =     0.00000000    0.00000000    0.00000000
     atom   32 type  4   force =     0.00000000    0.00000000    0.00000000
     atom   33 type  4   force =     0.00000000    0.00000000    0.00000000
     atom   34 type  4   force =     0.00000000    0.00000000    0.00000000
     atom   35 type  4   force =     0.00000000    0.00000000    0.00000000
     atom   36 type  4   force =     0.00000000    0.00000000    0.00000000
     atom   37 type  4   force =     0.00000000    0.00000000    0.00000000
     atom   38 type  4   force =     0.00000000    0.00000000    0.00000000
     atom   39 type  4   force =     0.00000000    0.00000000    0.00000000
     atom   40 type  4   force =     0.00000000    0.00000000    0.00000000
     atom   41 type  4   force =     0.00000000    0.00000000    0.00000000
     atom   42 type  4   force =     0.00000000    0.00000000    0.00000000
     atom   43 type  4   force =     0.00000000    0.00000000    0.00000000
     atom   44 type  4   force =     0.00000000    0.00000000    0.00000000
     atom   45 type  4   force =     0.00000000    0.00000000    0.00000000
     atom   46 type  4   force =     0.00000000    0.00000000    0.00000000
     atom   47 type  5   force =    -0.00467373   -0.00712790   -0.00000052
     atom   48 type  5   force =    -0.00467397    0.00712976   -0.00000008
     atom   49 type  5   force =     0.00467349    0.00712874   -0.00000005
     atom   50 type  5   force =     0.00467366   -0.00712915   -0.00000003
     The Hubbard contrib.    to forces
     atom    1 type  1   force =     0.00000000    0.00000000    0.00000000
     atom    2 type  1   force =     0.00000000    0.00000000    0.00000000
     atom    3 type  2   force =     0.00000000    0.00000000    0.00000000
     atom    4 type  2   force =     0.00000000    0.00000000    0.00000000
     atom    5 type  2   force =     0.00000000    0.00000000    0.00000000
     atom    6 type  2   force =     0.00000000    0.00000000    0.00000000
     atom    7 type  2   force =     0.00000000    0.00000000    0.00000000
     atom    8 type  2   force =     0.00000000    0.00000000    0.00000000
     atom    9 type  2   force =     0.00000000    0.00000000    0.00000000
     atom   10 type  2   force =     0.00000000    0.00000000    0.00000000
     atom   11 type  3   force =     0.00000000    0.00000000    0.00000000
     atom   12 type  3   force =     0.00000000    0.00000000    0.00000000
     atom   13 type  3   force =     0.00000000    0.00000000    0.00000000
     atom   14 type  3   force =     0.00000000    0.00000000    0.00000000
     atom   15 type  3   force =     0.00000000    0.00000000    0.00000000
     atom   16 type  3   force =     0.00000000    0.00000000    0.00000000
     atom   17 type  3   force =     0.00000000    0.00000000    0.00000000
     atom   18 type  3   force =     0.00000000    0.00000000    0.00000000
     atom   19 type  4   force =     0.00000000    0.00000000    0.00000000
     atom   20 type  4   force =     0.00000000    0.00000000    0.00000000
     atom   21 type  4   force =     0.00000000    0.00000000    0.00000000
     atom   22 type  4   force =     0.00000000    0.00000000    0.00000000
     atom   23 type  4   force =     0.00000000    0.00000000    0.00000000
     atom   24 type  4   force =     0.00000000    0.00000000    0.00000000
     atom   25 type  4   force =     0.00000000    0.00000000    0.00000000
     atom   26 type  4   force =     0.00000000    0.00000000    0.00000000
     atom   27 type  4   force =     0.00000000    0.00000000    0.00000000
     atom   28 type  4   force =     0.00000000    0.00000000    0.00000000
     atom   29 type  4   force =     0.00000000    0.00000000    0.00000000
     atom   30 type  4   force =     0.00000000    0.00000000    0.00000000
     atom   31 type  4   force =     0.00000000    0.00000000    0.00000000
     atom   32 type  4   force =     0.00000000    0.00000000    0.00000000
     atom   33 type  4   force =     0.00000000    0.00000000    0.00000000
     atom   34 type  4   force =     0.00000000    0.00000000    0.00000000
     atom   35 type  4   force =     0.00000000    0.00000000    0.00000000
     atom   36 type  4   force =     0.00000000    0.00000000    0.00000000
     atom   37 type  4   force =     0.00000000    0.00000000    0.00000000
     atom   38 type  4   force =     0.00000000    0.00000000    0.00000000
     atom   39 type  4   force =     0.00000000    0.00000000    0.00000000
     atom   40 type  4   force =     0.00000000    0.00000000    0.00000000
     atom   41 type  4   force =     0.00000000    0.00000000    0.00000000
     atom   42 type  4   force =     0.00000000    0.00000000    0.00000000
     atom   43 type  4   force =     0.00000000    0.00000000    0.00000000
     atom   44 type  4   force =     0.00000000    0.00000000    0.00000000
     atom   45 type  4   force =     0.00000000    0.00000000    0.00000000
     atom   46 type  4   force =     0.00000000    0.00000000    0.00000000
     atom   47 type  5   force =     0.00000000    0.00000000    0.00000000
     atom   48 type  5   force =     0.00000000    0.00000000    0.00000000
     atom   49 type  5   force =     0.00000000    0.00000000    0.00000000
     atom   50 type  5   force =     0.00000000    0.00000000    0.00000000
     The SCF correction term to forces
     atom    1 type  1   force =    -0.00000681   -0.00000000    0.00000000
     atom    2 type  1   force =     0.00000681    0.00000000    0.00000000
     atom    3 type  2   force =     0.00000159    0.00000091    0.00000000
     atom    4 type  2   force =     0.00000159   -0.00000091    0.00000000
     atom    5 type  2   force =    -0.00000159   -0.00000091    0.00000000
     atom    6 type  2   force =    -0.00000159    0.00000091   -0.00000000
     atom    7 type  2   force =     0.00000092   -0.00000000   -0.00000000
     atom    8 type  2   force =    -0.00000092   -0.00000000   -0.00000000
     atom    9 type  2   force =     0.00000262   -0.00000000   -0.00000000
     atom   10 type  2   force =    -0.00000262    0.00000000   -0.00000000
     atom   11 type  3   force =     0.00000006   -0.00000226    0.00000000
     atom   12 type  3   force =     0.00000006    0.00000226    0.00000000
     atom   13 type  3   force =    -0.00000006    0.00000226    0.00000000
     atom   14 type  3   force =    -0.00000006   -0.00000226    0.00000000
     atom   15 type  3   force =    -0.00000076   -0.00000022   -0.00000000
     atom   16 type  3   force =    -0.00000076    0.00000022    0.00000000
     atom   17 type  3   force =     0.00000076    0.00000022    0.00000000
     atom   18 type  3   force =     0.00000076   -0.00000022    0.00000000
     atom   19 type  4   force =     0.00000012    0.00000051   -0.00000008
     atom   20 type  4   force =     0.00000012   -0.00000051    0.00000008
     atom   21 type  4   force =    -0.00000012   -0.00000051   -0.00000008
     atom   22 type  4   force =    -0.00000012    0.00000051    0.00000008
     atom   23 type  4   force =    -0.00000012   -0.00000051    0.00000008
     atom   24 type  4   force =    -0.00000012    0.00000051   -0.00000008
     atom   25 type  4   force =     0.00000012    0.00000051    0.00000008
     atom   26 type  4   force =     0.00000012   -0.00000051   -0.00000008
     atom   27 type  4   force =     0.00000019    0.00000015   -0.00000000
     atom   28 type  4   force =     0.00000019   -0.00000015    0.00000000
     atom   29 type  4   force =    -0.00000019   -0.00000015    0.00000000
     atom   30 type  4   force =    -0.00000019    0.00000015    0.00000000
     atom   31 type  4   force =    -0.00000023    0.00000006   -0.00000007
     atom   32 type  4   force =    -0.00000023   -0.00000006    0.00000007
     atom   33 type  4   force =     0.00000023   -0.00000006   -0.00000007
     atom   34 type  4   force =     0.00000023    0.00000006    0.00000007
     atom   35 type  4   force =     0.00000023   -0.00000006    0.00000007
     atom   36 type  4   force =     0.00000023    0.00000006   -0.00000007
     atom   37 type  4   force =    -0.00000023    0.00000006    0.00000007
     atom   38 type  4   force =    -0.00000023   -0.00000006   -0.00000007
     atom   39 type  4   force =     0.00000030   -0.00000018   -0.00000024
     atom   40 type  4   force =     0.00000030    0.00000018    0.00000024
     atom   41 type  4   force =    -0.00000030    0.00000018   -0.00000024
     atom   42 type  4   force =    -0.00000030   -0.00000018    0.00000024
     atom   43 type  4   force =    -0.00000030    0.00000018    0.00000024
     atom   44 type  4   force =    -0.00000030   -0.00000018   -0.00000024
     atom   45 type  4   force =     0.00000030   -0.00000018    0.00000024
     atom   46 type  4   force =     0.00000030    0.00000018   -0.00000024
     atom   47 type  5   force =    -0.00000407    0.00000169    0.00000000
     atom   48 type  5   force =    -0.00000407   -0.00000169    0.00000000
     atom   49 type  5   force =     0.00000407   -0.00000169    0.00000000
     atom   50 type  5   force =     0.00000407    0.00000169    0.00000000

     Total force =     0.000710     Total SCF correction =     0.000015

     Computing stress (Cartesian axis) and pressure

          total   stress  (Ry/bohr**3)                   (kbar)     P=    0.06
   0.00000062  -0.00000000   0.00000000          0.09     -0.00      0.00
  -0.00000000   0.00000035   0.00000000         -0.00      0.05      0.00
   0.00000000   0.00000000   0.00000029          0.00      0.00      0.04

     kinetic stress (kbar)   8158.63      0.00     -0.00
                                0.00   8184.04     -0.00
                               -0.00     -0.00   8158.50

     local   stress (kbar)  -5227.34     -0.00     -0.00
                               -0.00  -3204.20     -0.00
                               -0.00     -0.00  -3020.42

     nonloc. stress (kbar)   -348.40      0.00      0.00
                               -0.00   -359.47      0.00
                                0.00      0.00   -403.52

     hartree stress (kbar)   3092.43     -0.00     -0.00
                               -0.00   2230.06      0.00
                               -0.00      0.00   2167.76

     exc-cor stress (kbar)   1487.40     -0.00      0.00
                               -0.00   1487.29      0.00
                                0.00      0.00   1491.85

     corecor stress (kbar)  -3455.53      0.00     -0.00
                                0.00  -3456.32     -0.00
                               -0.00     -0.00  -3458.73

     ewald   stress (kbar)  -3707.10     -0.00      0.00
                               -0.00  -4881.34      0.00
                                0.00      0.00  -4935.40

     hubbard stress (kbar)      0.00      0.00      0.00
                                0.00      0.00      0.00
                                0.00      0.00      0.00

     london  stress (kbar)      0.00      0.00      0.00
                                0.00      0.00      0.00
                                0.00      0.00      0.00

     XDM     stress (kbar)      0.00      0.00      0.00
                                0.00      0.00      0.00
                                0.00      0.00      0.00

     dft-nl  stress (kbar)      0.00      0.00      0.00
                                0.00      0.00      0.00
                                0.00      0.00      0.00

     TS-vdW  stress (kbar)      0.00      0.00      0.00
                                0.00      0.00      0.00
                                0.00      0.00      0.00

     Writing output data file scf.save

     General routines

     Parallel routines

   This run was terminated on:  10:31:51  16Mar2023

   JOB DONE.