     Program PHONON v.7.1 starts on 23Jun2023 at 10:27:46

     R & G space division:  proc/nbgrp/npool/nimage =     112

     Waiting for input...
     Reading input from standard input
      Title line not specified: using 'default'.

     Reading xml data from directory:

     ./scf.save/

     IMPORTANT: XC functional enforced from input :
     Exchange-correlation= PW
                           (   1   4   0   0   0   0   0)
     Any further DFT definition will be discarded
     Please, verify this is what you really want

     Using Pencil Decomposition

     Reading collected, re-writing distributed wavefunctions

     Calculation of q =    0.0000000   0.0000000   0.0000000

     default

     bravais-lattice index     =            0
     lattice parameter (alat)  =      19.6652  a.u.
     unit-cell volume          =    3980.8378 (a.u.)^3
     number of atoms/cell      =           50
     number of atomic types    =            5
     kinetic-energy cut-off    =      80.0000  Ry
     charge density cut-off    =     320.0000  Ry
     convergence threshold     =      1.0E-18
     beta                      =       0.3000
     number of iterations used =            4
     Exchange-correlation= PW
                           (   1   4   0   0   0   0   0)

     celldm(1)=   19.66520  celldm(2)=    0.00000  celldm(3)=    0.00000
     celldm(4)=    0.00000  celldm(5)=    0.00000  celldm(6)=    0.00000

     crystal axes: (cart. coord. in units of alat)
               a(1) = (  0.6680  0.6874  0.2850 )
               a(2) = (  0.6680 -0.6874  0.2850 )
               a(3) = (  0.6680 -0.6874 -0.2850 )

     reciprocal axes: (cart. coord. in units 2 pi/alat)
               b(1) = (  0.7485  0.7274 -0.0000 )
               b(2) = (  0.0000 -0.7274  1.7545 )
               b(3) = (  0.7485  0.0000 -1.7545 )

     Atoms inside the unit cell:

     Cartesian axes

     site n.  atom      mass           positions (alat units)
        1     Pb 207.2000   tau(    1) = (    1.48996   -0.68741    0.14249  )
        2     Pb 207.2000   tau(    2) = (    0.51412   -0.00000    0.14249  )
        3     Br  79.9000   tau(    3) = (    0.53001    0.28374    0.14249  )
        4     Br  79.9000   tau(    4) = (    0.53001   -0.28374    0.14249  )
        5     Br  79.9000   tau(    5) = (    1.47407   -0.97114    0.14249  )
        6     Br  79.9000   tau(    6) = (    1.47407   -0.40367    0.14249  )
        7     Br  79.9000   tau(    7) = (    1.18827   -0.68741    0.14249  )
        8     Br  79.9000   tau(    8) = (    0.81581    0.00000    0.14249  )
        9     Br  79.9000   tau(    9) = (    1.09546   -0.00000    0.42747  )
       10     Br  79.9000   tau(   10) = (    0.90862   -0.68741   -0.14249  )
       11     C   12.0100   tau(   11) = (    1.03211   -0.27797    0.14249  )
       12     C   12.0100   tau(   12) = (    1.03211    0.27797    0.14249  )
       13     C   12.0100   tau(   13) = (    0.97198   -0.40943    0.14249  )
       14     C   12.0100   tau(   14) = (    0.97198   -0.96538    0.14249  )
       15     C   12.0100   tau(   15) = (    1.23578   -0.16339    0.14249  )
       16     C   12.0100   tau(   16) = (    0.56775   -0.52402   -0.14249  )
       17     C   12.0100   tau(   17) = (    0.76830   -0.52402    0.14249  )
       18     C   12.0100   tau(   18) = (    1.43633   -0.16339    0.42747  )
       19     H    1.0080   tau(   19) = (    0.99983   -0.46473    0.05612  )
       20     H    1.0080   tau(   20) = (    0.33180   -0.22268   -0.05612  )
       21     H    1.0080   tau(   21) = (    1.00425   -0.22268    0.05612  )
       22     H    1.0080   tau(   22) = (    1.00425    0.22268    0.22885  )
       23     H    1.0080   tau(   23) = (    1.00425   -0.22268    0.22885  )
       24     H    1.0080   tau(   24) = (    1.67228   -0.46473    0.34110  )
       25     H    1.0080   tau(   25) = (    0.99983   -0.46473    0.22885  )
       26     H    1.0080   tau(   26) = (    0.99983   -0.91008    0.05612  )
       27     H    1.0080   tau(   27) = (    1.34071   -0.17683    0.14249  )
       28     H    1.0080   tau(   28) = (    0.67269   -0.51057   -0.14249  )
       29     H    1.0080   tau(   29) = (    0.66337   -0.51057    0.14249  )
       30     H    1.0080   tau(   30) = (    1.33140   -0.17683    0.42747  )
       31     H    1.0080   tau(   31) = (    0.79926   -0.57661    0.22922  )
       32     H    1.0080   tau(   32) = (    0.79926   -0.79820    0.05576  )
       33     H    1.0080   tau(   33) = (    1.20483   -0.11079    0.22922  )
       34     H    1.0080   tau(   34) = (    1.20483    0.11079    0.05576  )
       35     H    1.0080   tau(   35) = (    1.20483   -0.11079    0.05576  )
       36     H    1.0080   tau(   36) = (    1.20483    0.11079    0.22922  )
       37     H    1.0080   tau(   37) = (    0.79926   -0.57661    0.05576  )
       38     H    1.0080   tau(   38) = (    0.79926   -0.79820    0.22922  )
       39     H    1.0080   tau(   39) = (    0.80287   -0.34568    0.06033  )
       40     H    1.0080   tau(   40) = (    0.80287    0.34568    0.22464  )
       41     H    1.0080   tau(   41) = (    1.20122   -0.34173    0.06033  )
       42     H    1.0080   tau(   42) = (    0.53319   -0.34568   -0.06033  )
       43     H    1.0080   tau(   43) = (    1.20122   -0.34173    0.22464  )
       44     H    1.0080   tau(   44) = (    1.20122   -1.03308    0.06033  )
       45     H    1.0080   tau(   45) = (    0.80287   -0.34568    0.22464  )
       46     H    1.0080   tau(   46) = (    1.47089   -0.34173    0.34531  )
       47     N   14.0100   tau(   47) = (    1.17270   -0.28954    0.14249  )
       48     N   14.0100   tau(   48) = (    0.50467   -0.39787   -0.14249  )
       49     N   14.0100   tau(   49) = (    0.83139   -0.39787    0.14249  )
       50     N   14.0100   tau(   50) = (    1.49941   -0.28954    0.42747  )

     Computing dynamical matrix for
                    q = (   0.0000000   0.0000000   0.0000000 )

      9 Sym.Ops. (with q -> -q+G )

     G cutoff = 3134.6363  (   3433 G-vectors)     FFT grid: (120,120,120)
     number of k points=     8
                       cart. coord. in units 2pi/alat
        k(    1) = (   0.2494908   0.0000000  -0.0000000), wk =   0.1481481
        k(    2) = (  -0.2494908  -0.0000000   1.1696802), wk =   0.2962963
        k(    3) = (  -0.0000000  -0.0000000   0.5848401), wk =   0.1481481
        k(    4) = (   0.2494908   0.4849148  -1.1696802), wk =   0.5925926
        k(    5) = (  -0.2494908   0.4849148   0.0000000), wk =   0.2962963
        k(    6) = (  -0.0000000   0.4849148  -0.5848401), wk =   0.2962963
        k(    7) = (  -0.0000000   0.2424574  -0.0000000), wk =   0.1481481
        k(    8) = (  -0.7484724  -0.0000000   0.0000000), wk =   0.0740741

     PseudoPot. # 1 for Pb read from file:
     /home/rkarkee/merced_home_backup/rkarkee/LDA/Pb.upf
     MD5 check sum: 8ad8d2bb8df011aab85e70b3f3e56d27
     Pseudo is Norm-conserving + core correction, Zval = 14.0
     Generated using ONCVPSP code by D. R. Hamann
     Using radial grid of 1638 points,  6 beta functions with:
                l(1) =   0
                l(2) =   0
                l(3) =   1
                l(4) =   1
                l(5) =   2
                l(6) =   2

     PseudoPot. # 2 for Br read from file:
     /home/rkarkee/merced_home_backup/rkarkee/LDA/Br.upf
     MD5 check sum: 279e723dabc259e39da0b35054823436
     Pseudo is Norm-conserving + core correction, Zval =  7.0
     Generated using ONCVPSP code by D. R. Hamann
     Using radial grid of 1084 points,  6 beta functions with:
                l(1) =   0
                l(2) =   0
                l(3) =   1
                l(4) =   1
                l(5) =   2
                l(6) =   2

     PseudoPot. # 3 for C  read from file:
     /home/rkarkee/merced_home_backup/rkarkee/LDA/C.upf
     MD5 check sum: c9bd9c91d9c48f3c1b9c51e450525728
     Pseudo is Norm-conserving + core correction, Zval =  4.0
     Generated using ONCVPSP code by D. R. Hamann
     Using radial grid of 1234 points,  4 beta functions with:
                l(1) =   0
                l(2) =   0
                l(3) =   1
                l(4) =   1

     PseudoPot. # 4 for H  read from file:
     /home/rkarkee/merced_home_backup/rkarkee/LDA/H.upf
     MD5 check sum: 785d664e2740b342582c379770e72c80
     Pseudo is Norm-conserving, Zval =  1.0
     Generated using ONCVPSP code by D. R. Hamann
     Using radial grid of 1180 points,  3 beta functions with:
                l(1) =   0
                l(2) =   0
                l(3) =   1

     PseudoPot. # 5 for N  read from file:
     /home/rkarkee/merced_home_backup/rkarkee/LDA/N.upf
     MD5 check sum: f7cfb052850314c53fa2901765c0b356
     Pseudo is Norm-conserving + core correction, Zval =  5.0
     Generated using ONCVPSP code by D. R. Hamann
     Using radial grid of 1058 points,  4 beta functions with:
                l(1) =   0
                l(2) =   0
                l(3) =   1
                l(4) =   1

     Mode symmetry, D_2h (mmm)  point group:

     Electric field:
     Dielectric constant
     Born effective charges as d Force / d E
     Raman tensor

     Atomic displacements:
     There are  150 irreducible representations

     Representation     1      1 modes -  To be done

[...]

     Representation   150      1 modes -  To be done

     Alpha used in Ewald sum =   2.7000

     Electric Fields Calculation

      thresh= 1.000E-02 alpha_mix =  0.300 |ddv_scf|^2 =  2.335E-08

[...]

     End of electric fields calculation

          Dielectric constant in cartesian axis

          (       3.553026133      -0.000000000       0.000000000 )
          (      -0.000000000       3.563408874       0.000000000 )
          (       0.000000000       0.000000000       3.636704241 )

          Effective charges (d Force / dE) in cartesian axis without acoustic sum rule applied (asr)

           atom      1   Pb Mean Z*:        3.24372
      Ex  (        2.92694       -0.00000        0.00000 )
      Ey  (        0.00000        3.01165        0.00000 )
      Ez  (        0.00000        0.00000        3.79256 )
           atom      2   Pb Mean Z*:        3.24372
      Ex  (        2.92694       -0.00000        0.00000 )
      Ey  (        0.00000        3.01165        0.00000 )
      Ez  (        0.00000        0.00000        3.79256 )
           atom      3   Br Mean Z*:       -1.29640
      Ex  (       -0.66862       -0.07342       -0.00000 )
      Ey  (       -0.08156       -1.80731        0.00000 )
      Ez  (       -0.00000        0.00000       -1.41329 )
           atom      4   Br Mean Z*:       -1.29640
      Ex  (       -0.66862        0.07342        0.00000 )
      Ey  (        0.08156       -1.80731       -0.00000 )
      Ez  (       -0.00000        0.00000       -1.41329 )
           atom      5   Br Mean Z*:       -1.29640
      Ex  (       -0.66862       -0.07342        0.00000 )
      Ey  (       -0.08156       -1.80731        0.00000 )
      Ez  (        0.00000        0.00000       -1.41329 )
           atom      6   Br Mean Z*:       -1.29640
[...]
           atom     45   H  Mean Z*:        0.56982
      E*x (        0.28161       -0.10741       -0.09172 )
      E*y (       -0.12931        0.29841        0.50573 )
      E*z (       -0.08550        0.40028        1.12943 )
           atom     46   H  Mean Z*:        0.56982
      E*x (        0.28161        0.10741        0.09172 )
      E*y (        0.12931        0.29841        0.50573 )
      E*z (        0.08550        0.40028        1.12943 )
           atom     47   N  Mean Z*:       -0.84261
      E*x (       -0.53996        0.12435        0.00000 )
      E*y (        0.08336       -0.62554        0.00000 )
      E*z (        0.00000        0.00000       -1.36235 )
           atom     48   N  Mean Z*:       -0.84261
      E*x (       -0.53996       -0.12435       -0.00000 )
      E*y (       -0.08336       -0.62554       -0.00000 )
      E*z (       -0.00000       -0.00000       -1.36235 )
           atom     49   N  Mean Z*:       -0.84261
      E*x (       -0.53996        0.12435       -0.00000 )
      E*y (        0.08336       -0.62554       -0.00000 )
      E*z (       -0.00000       -0.00000       -1.36235 )
           atom     50   N  Mean Z*:       -0.84261
      E*x (       -0.53996       -0.12435       -0.00000 )
      E*y (       -0.08336       -0.62554        0.00000 )
      E*z (        0.00000       -0.00000       -1.36235 )

     Diagonalizing the dynamical matrix

     q = (    0.000000000   0.000000000   0.000000000 )

     freq (    1) =      -0.075672 [THz] =      -2.524157 [cm-1]
     freq (    2) =       0.096675 [THz] =       3.224715 [cm-1]
     freq (    3) =       0.111633 [THz] =       3.723688 [cm-1]
     freq (    4) =       0.898704 [THz] =      29.977555 [cm-1]
     freq (    5) =       0.952760 [THz] =      31.780658 [cm-1]
     freq (    6) =       0.977487 [THz] =      32.605452 [cm-1]
     freq (    7) =       1.081883 [THz] =      36.087748 [cm-1]
     freq (    8) =       1.172488 [THz] =      39.109984 [cm-1]
     freq (    9) =       1.201886 [THz] =      40.090618 [cm-1]
     freq (   10) =       1.208575 [THz] =      40.313724 [cm-1]
     freq (   11) =       1.266500 [THz] =      42.245906 [cm-1]
     freq (   12) =       1.308675 [THz] =      43.652690 [cm-1]
     freq (   13) =       1.401799 [THz] =      46.758980 [cm-1]
     freq (   14) =       1.439256 [THz] =      48.008420 [cm-1]
     freq (   15) =       1.445864 [THz] =      48.228828 [cm-1]
     freq (   16) =       1.526761 [THz] =      50.927273 [cm-1]
     freq (   17) =       1.658404 [THz] =      55.318415 [cm-1]
     freq (   18) =       1.790072 [THz] =      59.710385 [cm-1]
     freq (   19) =       1.791652 [THz] =      59.763066 [cm-1]
     freq (   20) =       1.836722 [THz] =      61.266452 [cm-1]
     freq (   21) =       1.936822 [THz] =      64.605419 [cm-1]
     freq (   22) =       1.941390 [THz] =      64.757790 [cm-1]
     freq (   23) =       2.554189 [THz] =      85.198560 [cm-1]
     freq (   24) =       2.775783 [THz] =      92.590160 [cm-1]
     freq (   25) =       2.935433 [THz] =      97.915517 [cm-1]
     freq (   26) =       2.997429 [THz] =      99.983480 [cm-1]
     freq (   27) =       3.118197 [THz] =     104.011855 [cm-1]
     freq (   28) =       3.222773 [THz] =     107.500149 [cm-1]
     freq (   29) =       3.230813 [THz] =     107.768324 [cm-1]
     freq (   30) =       3.253887 [THz] =     108.537971 [cm-1]
     freq (   31) =       3.273528 [THz] =     109.193152 [cm-1]
     freq (   32) =       3.453122 [THz] =     115.183738 [cm-1]
     freq (   33) =       3.468440 [THz] =     115.694702 [cm-1]
     freq (   34) =       3.542319 [THz] =     118.159040 [cm-1]
     freq (   35) =       3.664110 [THz] =     122.221543 [cm-1]
     freq (   36) =       3.713872 [THz] =     123.881436 [cm-1]
     freq (   37) =       3.875824 [THz] =     129.283561 [cm-1]
     freq (   38) =       3.988288 [THz] =     133.034959 [cm-1]
     freq (   39) =       4.175561 [THz] =     139.281739 [cm-1]
     freq (   40) =       4.399862 [THz] =     146.763587 [cm-1]
     freq (   41) =       4.607917 [THz] =     153.703552 [cm-1]
     freq (   42) =       4.836563 [THz] =     161.330385 [cm-1]
     freq (   43) =       5.102198 [THz] =     170.191016 [cm-1]
     freq (   44) =       5.489818 [THz] =     183.120619 [cm-1]
     freq (   45) =       5.694040 [THz] =     189.932724 [cm-1]
     freq (   46) =       5.835874 [THz] =     194.663800 [cm-1]
     freq (   47) =       6.984658 [THz] =     232.983104 [cm-1]
     freq (   48) =       7.136937 [THz] =     238.062586 [cm-1]
     freq (   49) =       7.430305 [THz] =     247.848293 [cm-1]
     freq (   50) =       7.431768 [THz] =     247.897111 [cm-1]
     freq (   51) =       8.677623 [THz] =     289.454349 [cm-1]
     freq (   52) =       8.805772 [THz] =     293.728932 [cm-1]
     freq (   53) =       9.498281 [THz] =     316.828550 [cm-1]
     freq (   54) =       9.667046 [THz] =     322.457944 [cm-1]
     freq (   55) =       9.838659 [THz] =     328.182349 [cm-1]
     freq (   56) =       9.978190 [THz] =     332.836607 [cm-1]
     freq (   57) =      11.482718 [THz] =     383.022259 [cm-1]
     freq (   58) =      11.583170 [THz] =     386.372975 [cm-1]
     freq (   59) =      14.252930 [THz] =     475.426565 [cm-1]
     freq (   60) =      14.383750 [THz] =     479.790268 [cm-1]
[...]
     freq (  136) =      88.821202 [THz] =    2962.756381 [cm-1]
     freq (  137) =      88.881492 [THz] =    2964.767434 [cm-1]
     freq (  138) =      88.998650 [THz] =    2968.675430 [cm-1]
     freq (  139) =      89.239746 [THz] =    2976.717505 [cm-1]
     freq (  140) =      89.242544 [THz] =    2976.810857 [cm-1]
     freq (  141) =      89.741530 [THz] =    2993.455212 [cm-1]
     freq (  142) =      89.759309 [THz] =    2994.048283 [cm-1]
     freq (  143) =      89.781447 [THz] =    2994.786715 [cm-1]
     freq (  144) =      89.832453 [THz] =    2996.488075 [cm-1]
     freq (  145) =      89.898446 [THz] =    2998.689383 [cm-1]
     freq (  146) =      89.898660 [THz] =    2998.696512 [cm-1]
     freq (  147) =      90.739692 [THz] =    3026.750321 [cm-1]
     freq (  148) =      90.761740 [THz] =    3027.485779 [cm-1]
     freq (  149) =      90.823959 [THz] =    3029.561173 [cm-1]
     freq (  150) =      90.833231 [THz] =    3029.870461 [cm-1]

     Mode symmetry, D_2h (mmm)  point group:

     freq (   1-   1) =         -2.5  [cm-1]   --> B_1u            I
     freq (   2-   2) =          3.2  [cm-1]   --> B_3u            I
     freq (   3-   3) =          3.7  [cm-1]   --> B_2u            I
     freq (   4-   4) =         30.0  [cm-1]   --> B_1g            R
     freq (   5-   5) =         31.8  [cm-1]   --> B_1u            I
     freq (   6-   6) =         32.6  [cm-1]   --> B_3g            R
     freq (   7-   7) =         36.1  [cm-1]   --> B_2g            R
     freq (   8-   8) =         39.1  [cm-1]   --> B_1g            R
     freq (   9-   9) =         40.1  [cm-1]   --> B_3u            I
     freq (  10-  10) =         40.3  [cm-1]   --> B_2u            I
     freq (  11-  11) =         42.2  [cm-1]   --> B_3g            R
     freq (  12-  12) =         43.7  [cm-1]   --> A_g             R
     freq (  13-  13) =         46.8  [cm-1]   --> A_u
     freq (  14-  14) =         48.0  [cm-1]   --> B_3u            I
     freq (  15-  15) =         48.2  [cm-1]   --> B_1g            R
     freq (  16-  16) =         50.9  [cm-1]   --> B_1u            I
     freq (  17-  17) =         55.3  [cm-1]   --> B_3g            R
     freq (  18-  18) =         59.7  [cm-1]   --> A_g             R
     freq (  19-  19) =         59.8  [cm-1]   --> B_3u            I
     freq (  20-  20) =         61.3  [cm-1]   --> B_2u            I
     freq (  21-  21) =         64.6  [cm-1]   --> B_3u            I
     freq (  22-  22) =         64.8  [cm-1]   --> B_1g            R
     freq (  23-  23) =         85.2  [cm-1]   --> A_g             R
     freq (  24-  24) =         92.6  [cm-1]   --> B_2u            I
     freq (  25-  25) =         97.9  [cm-1]   --> B_3g            R
     freq (  26-  26) =        100.0  [cm-1]   --> B_1u            I
     freq (  27-  27) =        104.0  [cm-1]   --> A_u
     freq (  28-  28) =        107.5  [cm-1]   --> B_2g            R
     freq (  29-  29) =        107.8  [cm-1]   --> B_1u            I
     freq (  30-  30) =        108.5  [cm-1]   --> A_g             R
     freq (  31-  31) =        109.2  [cm-1]   --> B_1g            R
     freq (  32-  32) =        115.2  [cm-1]   --> B_3u            I
     freq (  33-  33) =        115.7  [cm-1]   --> B_2u            I
     freq (  34-  34) =        118.2  [cm-1]   --> B_3u            I
     freq (  35-  35) =        122.2  [cm-1]   --> B_3g            R
     freq (  36-  36) =        123.9  [cm-1]   --> B_2u            I
     freq (  37-  37) =        129.3  [cm-1]   --> B_2u            I
     freq (  38-  38) =        133.0  [cm-1]   --> B_1g            R
     freq (  39-  39) =        139.3  [cm-1]   --> A_g             R
     freq (  40-  40) =        146.8  [cm-1]   --> B_2g            R
     freq (  41-  41) =        153.7  [cm-1]   --> B_1u            I
     freq (  42-  42) =        161.3  [cm-1]   --> A_g             R
     freq (  43-  43) =        170.2  [cm-1]   --> A_u
     freq (  44-  44) =        183.1  [cm-1]   --> B_3g            R
     freq (  45-  45) =        189.9  [cm-1]   --> B_3u            I
     freq (  46-  46) =        194.7  [cm-1]   --> B_2u            I
     freq (  47-  47) =        233.0  [cm-1]   --> A_u
     freq (  48-  48) =        238.1  [cm-1]   --> B_2g            R
     freq (  49-  49) =        247.8  [cm-1]   --> B_3g            R
     freq (  50-  50) =        247.9  [cm-1]   --> B_1u            I
     freq (  51-  51) =        289.5  [cm-1]   --> A_u
     freq (  52-  52) =        293.7  [cm-1]   --> B_3g            R
     freq (  53-  53) =        316.8  [cm-1]   --> B_2g            R
     freq (  54-  54) =        322.5  [cm-1]   --> B_1g            R
     freq (  55-  55) =        328.2  [cm-1]   --> B_1u            I
     freq (  56-  56) =        332.8  [cm-1]   --> A_g             R
     freq (  57-  57) =        383.0  [cm-1]   --> B_1g            R
     freq (  58-  58) =        386.4  [cm-1]   --> A_g             R
     freq (  59-  59) =        475.4  [cm-1]   --> B_3u            I
     freq (  60-  60) =        479.8  [cm-1]   --> B_2u            I
     freq (  61-  61) =        739.4  [cm-1]   --> B_1u            I
     freq (  62-  62) =        740.4  [cm-1]   --> A_u
     freq (  63-  63) =        804.2  [cm-1]   --> B_2g            R
     freq (  64-  64) =        810.9  [cm-1]   --> B_3g            R
     freq (  65-  65) =        864.2  [cm-1]   --> A_u
     freq (  66-  66) =        865.6  [cm-1]   --> B_1u            I
     freq (  67-  67) =        937.9  [cm-1]   --> B_3u            I
     freq (  68-  68) =        938.4  [cm-1]   --> B_2u            I
     freq (  69-  69) =        968.2  [cm-1]   --> A_g             R
     freq (  70-  70) =        969.2  [cm-1]   --> B_1g            R
     freq (  71-  71) =        996.7  [cm-1]   --> B_2g            R
     freq (  72-  72) =       1013.7  [cm-1]   --> B_3g            R
     freq (  73-  73) =       1046.5  [cm-1]   --> B_1g            R
     freq (  74-  74) =       1049.1  [cm-1]   --> A_g             R
     freq (  75-  75) =       1067.8  [cm-1]   --> A_u
     freq (  76-  76) =       1073.0  [cm-1]   --> B_1u            I
     freq (  77-  77) =       1086.2  [cm-1]   --> B_3u            I
     freq (  78-  78) =       1090.3  [cm-1]   --> B_1g            R
     freq (  79-  79) =       1092.2  [cm-1]   --> B_2u            I
     freq (  80-  80) =       1095.1  [cm-1]   --> A_g             R
     freq (  81-  81) =       1120.3  [cm-1]   --> B_3u            I
     freq (  82-  82) =       1125.1  [cm-1]   --> B_2u            I
     freq (  83-  83) =       1186.1  [cm-1]   --> A_g             R
     freq (  84-  84) =       1188.5  [cm-1]   --> B_1g            R
     freq (  85-  85) =       1203.9  [cm-1]   --> B_2g            R
     freq (  86-  86) =       1212.9  [cm-1]   --> B_3g            R
     freq (  87-  87) =       1268.3  [cm-1]   --> A_u
     freq (  88-  88) =       1272.7  [cm-1]   --> B_1u            I
     freq (  89-  89) =       1280.8  [cm-1]   --> B_3u            I
     freq (  90-  90) =       1282.8  [cm-1]   --> B_2u            I
     freq (  91-  91) =       1286.1  [cm-1]   --> B_2g            R
     freq (  92-  92) =       1288.9  [cm-1]   --> B_3g            R
     freq (  93-  93) =       1356.9  [cm-1]   --> B_1g            R
     freq (  94-  94) =       1358.8  [cm-1]   --> B_2g            R
     freq (  95-  95) =       1362.0  [cm-1]   --> A_g             R
     freq (  96-  96) =       1364.1  [cm-1]   --> B_3u            I
     freq (  97-  97) =       1365.7  [cm-1]   --> B_3g            R
     freq (  98-  98) =       1372.9  [cm-1]   --> B_2u            I
     freq (  99-  99) =       1374.3  [cm-1]   --> B_1g            R
     freq ( 100- 100) =       1376.4  [cm-1]   --> A_g             R
     freq ( 101- 101) =       1379.6  [cm-1]   --> B_1u            I
     freq ( 102- 102) =       1381.1  [cm-1]   --> B_1g            R
     freq ( 103- 103) =       1384.8  [cm-1]   --> A_u
     freq ( 104- 104) =       1386.4  [cm-1]   --> A_g             R
     freq ( 105- 105) =       1394.4  [cm-1]   --> B_3u            I
     freq ( 106- 106) =       1397.6  [cm-1]   --> B_2u            I
     freq ( 107- 107) =       1399.8  [cm-1]   --> B_3u            I
     freq ( 108- 108) =       1404.3  [cm-1]   --> B_1g            R
     freq ( 109- 109) =       1407.9  [cm-1]   --> B_2u            I
     freq ( 110- 110) =       1408.1  [cm-1]   --> B_1g            R
     freq ( 111- 111) =       1408.6  [cm-1]   --> A_g             R
     freq ( 112- 112) =       1409.2  [cm-1]   --> B_2g            R
     freq ( 113- 113) =       1413.1  [cm-1]   --> B_1u            I
     freq ( 114- 114) =       1419.3  [cm-1]   --> B_3u            I
     freq ( 115- 115) =       1432.5  [cm-1]   --> B_2u            I
     freq ( 116- 116) =       1436.0  [cm-1]   --> A_u
     freq ( 117- 117) =       1437.2  [cm-1]   --> A_g             R
     freq ( 118- 118) =       1445.0  [cm-1]   --> B_3g            R
     freq ( 119- 119) =       1489.1  [cm-1]   --> B_3u            I
     freq ( 120- 120) =       1492.9  [cm-1]   --> A_g             R
     freq ( 121- 121) =       1499.9  [cm-1]   --> B_1g            R
     freq ( 122- 122) =       1501.1  [cm-1]   --> B_2u            I
     freq ( 123- 123) =       2902.1  [cm-1]   --> B_1g            R
     freq ( 124- 124) =       2905.8  [cm-1]   --> B_3u            I
     freq ( 125- 125) =       2906.1  [cm-1]   --> B_1u            I
     freq ( 126- 126) =       2906.6  [cm-1]   --> A_u
     freq ( 127- 127) =       2906.8  [cm-1]   --> B_2g            R
     freq ( 128- 128) =       2907.4  [cm-1]   --> B_3g            R
     freq ( 129- 129) =       2910.4  [cm-1]   --> B_2u            I
     freq ( 130- 130) =       2915.5  [cm-1]   --> A_g             R
     freq ( 131- 131) =       2919.2  [cm-1]   --> B_1g            R
     freq ( 132- 132) =       2919.6  [cm-1]   --> A_g             R
     freq ( 133- 133) =       2928.5  [cm-1]   --> B_3u            I
     freq ( 134- 134) =       2929.7  [cm-1]   --> B_2u            I
     freq ( 135- 135) =       2962.4  [cm-1]   --> B_1g            R
     freq ( 136- 136) =       2962.8  [cm-1]   --> B_3u            I
     freq ( 137- 137) =       2964.8  [cm-1]   --> A_g             R
     freq ( 138- 138) =       2968.7  [cm-1]   --> B_2u            I
     freq ( 139- 139) =       2976.7  [cm-1]   --> B_2g            R
     freq ( 140- 140) =       2976.8  [cm-1]   --> B_3g            R
     freq ( 141- 141) =       2993.5  [cm-1]   --> A_u
     freq ( 142- 142) =       2994.0  [cm-1]   --> B_2g            R
     freq ( 143- 143) =       2994.8  [cm-1]   --> B_1u            I
     freq ( 144- 144) =       2996.5  [cm-1]   --> A_u
     freq ( 145- 145) =       2998.7  [cm-1]   --> B_3g            R
     freq ( 146- 146) =       2998.7  [cm-1]   --> B_1u            I
     freq ( 147- 147) =       3026.8  [cm-1]   --> B_1g            R
     freq ( 148- 148) =       3027.5  [cm-1]   --> B_3u            I
     freq ( 149- 149) =       3029.6  [cm-1]   --> A_g             R
     freq ( 150- 150) =       3029.9  [cm-1]   --> B_2u            I

     INITIALIZATION:

     DIELECTRIC CONSTANT AND EFFECTIVE CHARGES:

     RAMAN COEFFICIENTS, THIRD-ORDER CHI:

     DYNAMICAL MATRIX:

      General routines

   This run was terminated on:  19: 5:22  23Jun2023

   JOB DONE.