     Program PWSCF v.7.1 starts on 23Jun2023 at 10:27:18

     Waiting for input...
     Reading input from standard input
Warning: card &CELL ignored
Warning: card PRESS_CONV_THR = 0.001 ignored
Warning: card / ignored

     Current dimensions of program PWSCF are:
     Max number of different atomic species (ntypx) = 10
     Max number of k-points (npk) =  40000
     Max angular momentum in pseudopotentials (lmaxx) =  4

     File ./scf.update deleted, as requested
     Message from routine setup:
     using ibrav=0 with symmetry is DISCOURAGED, use correct ibrav instead

     K-points division:     npool     =       2
     R & G space division:  proc/nbgrp/npool/nimage =      56
     Subspace diagonalization in iterative solution of the eigenvalue problem:
     a serial algorithm will be used

     Using Slab Decomposition

     bravais-lattice index     =            0
     lattice parameter (alat)  =      19.6652  a.u.
     unit-cell volume          =    3980.8378 (a.u.)^3
     number of atoms/cell      =           50
     number of atomic types    =            5
     number of electrons       =       164.00
     number of Kohn-Sham states=           82
     kinetic-energy cutoff     =      80.0000  Ry
     charge density cutoff     =     320.0000  Ry
     scf convergence threshold =      1.0E-12
     mixing beta               =       0.5000
     number of iterations used =            8  plain     mixing
     Exchange-correlation= SLA  PW   NOGX NOGC
                           (   1   4   0   0   0   0   0)

     celldm(1)=  19.665204  celldm(2)=   0.000000  celldm(3)=   0.000000
     celldm(4)=   0.000000  celldm(5)=   0.000000  celldm(6)=   0.000000

     crystal axes: (cart. coord. in units of alat)
               a(1) = (   0.668027   0.687406   0.284978 )
               a(2) = (   0.668027  -0.687406   0.284978 )
               a(3) = (   0.668027  -0.687406  -0.284978 )

     reciprocal axes: (cart. coord. in units 2 pi/alat)
               b(1) = (  0.748472  0.727372  0.000000 )
               b(2) = (  0.000000 -0.727372  1.754520 )
               b(3) = (  0.748472  0.000000 -1.754520 )

     PseudoPot. # 1 for Pb read from file:
     /home/rkarkee/merced_home_backup/rkarkee/LDA/Pb.upf
     MD5 check sum: 8ad8d2bb8df011aab85e70b3f3e56d27
     Pseudo is Norm-conserving + core correction, Zval = 14.0
     Generated using ONCVPSP code by D. R. Hamann
     Using radial grid of 1638 points,  6 beta functions with:
                l(1) =   0
                l(2) =   0
                l(3) =   1
                l(4) =   1
                l(5) =   2
                l(6) =   2

     PseudoPot. # 2 for Br read from file:
     /home/rkarkee/merced_home_backup/rkarkee/LDA/Br.upf
     MD5 check sum: 279e723dabc259e39da0b35054823436
     Pseudo is Norm-conserving + core correction, Zval =  7.0
     Generated using ONCVPSP code by D. R. Hamann
     Using radial grid of 1084 points,  6 beta functions with:
                l(1) =   0
                l(2) =   0
                l(3) =   1
                l(4) =   1
                l(5) =   2
                l(6) =   2

     PseudoPot. # 3 for C  read from file:
     /home/rkarkee/merced_home_backup/rkarkee/LDA/C.upf
     MD5 check sum: c9bd9c91d9c48f3c1b9c51e450525728
     Pseudo is Norm-conserving + core correction, Zval =  4.0
     Generated using ONCVPSP code by D. R. Hamann
     Using radial grid of 1234 points,  4 beta functions with:
                l(1) =   0
                l(2) =   0
                l(3) =   1
                l(4) =   1

     PseudoPot. # 4 for H  read from file:
     /home/rkarkee/merced_home_backup/rkarkee/LDA/H.upf
     MD5 check sum: 785d664e2740b342582c379770e72c80
     Pseudo is Norm-conserving, Zval =  1.0
     Generated using ONCVPSP code by D. R. Hamann
     Using radial grid of 1180 points,  3 beta functions with:
                l(1) =   0
                l(2) =   0
                l(3) =   1

     PseudoPot. # 5 for N  read from file:
     /home/rkarkee/merced_home_backup/rkarkee/LDA/N.upf
     MD5 check sum: f7cfb052850314c53fa2901765c0b356
     Pseudo is Norm-conserving + core correction, Zval =  5.0
     Generated using ONCVPSP code by D. R. Hamann
     Using radial grid of 1058 points,  4 beta functions with:
                l(1) =   0
                l(2) =   0
                l(3) =   1
                l(4) =   1

     atomic species   valence    mass     pseudopotential
        Pb            14.00   207.20000     Pb( 1.00)
        Br             7.00    79.90000     Br( 1.00)
        C              4.00    12.01000     C ( 1.00)
        H              1.00     1.00800     H ( 1.00)
        N              5.00    14.01000     N ( 1.00)

      8 Sym. Ops., with inversion, found ( 4 have fractional translation)

                                    s                        frac. trans.

      isym =  1     identity

 cryst.   s( 1) = (     1          0          0      )
                  (     0          1          0      )
                  (     0          0          1      )

 cart.    s( 1) = (  1.0000000 -0.0000000  0.0000000 )
                  ( -0.0000000  1.0000000 -0.0000000 )
                  (  0.0000000  0.0000000  1.0000000 )

      isym =  2     180 deg rotation - cart. axis [0,0,1]

 cryst.   s( 2) = (    -1          1         -1      )    f =( -0.0000000 )
                  (     0          0         -1      )       (  0.5000000 )
                  (     0         -1          0      )       (  0.5000000 )

 cart.    s( 2) = ( -1.0000000  0.0000000  0.0000000 )    f =(  0.6680273 )
                  (  0.0000000 -1.0000000 -0.0000000 )       ( -0.6874060 )
                  (  0.0000000 -0.0000000  1.0000000 )       ( -0.0000000 )

[...]

      isym =  4     180 deg rotation - cart. axis [1,0,0]

[...]

      isym =  5     inversion

[...]

      isym =  6     inv. 180 deg rotation - cart. axis [0,0,1]

[...]

 cryst.   s( 7) = (     0          1          0      )
                  (     1          0          0      )
                  (     1         -1          1      )

 cart.    s( 7) = (  1.0000000  0.0000000  0.0000000 )
                  ( -0.0000000 -1.0000000 -0.0000000 )
                  ( -0.0000000 -0.0000000  1.0000000 )

      isym =  8     inv. 180 deg rotation - cart. axis [1,0,0]

 cryst.   s( 8) = (     0          0         -1      )    f =( -0.0000000 )
                  (    -1          1         -1      )       (  0.5000000 )
                  (    -1          0          0      )       (  0.5000000 )

 cart.    s( 8) = ( -1.0000000 -0.0000000  0.0000000 )    f =(  0.6680273 )
                  (  0.0000000  1.0000000 -0.0000000 )       ( -0.6874060 )
                  (  0.0000000  0.0000000  1.0000000 )       ( -0.0000000 )

   Cartesian axes

     site n.     atom                  positions (alat units)
         1           Pb  tau(   1) = (   1.4899609  -0.6874060   0.1424891  )
         2           Pb  tau(   2) = (   0.5141210  -0.0000000   0.1424891  )
         3           Br  tau(   3) = (   0.5300132   0.2837362   0.1424891  )
         4           Br  tau(   4) = (   0.5300132  -0.2837362   0.1424891  )
         5           Br  tau(   5) = (   1.4740687  -0.9711422   0.1424891  )
         6           Br  tau(   6) = (   1.4740687  -0.4036698   0.1424891  )
         7           Br  tau(   7) = (   1.1882684  -0.6874060   0.1424891  )
         8           Br  tau(   8) = (   0.8158135   0.0000000   0.1424891  )
         9           Br  tau(   9) = (   1.0954587  -0.0000000   0.4274673  )
        10           Br  tau(  10) = (   0.9086232  -0.6874060  -0.1424891  )
        11           C   tau(  11) = (   1.0321056  -0.2779750   0.1424891  )
        12           C   tau(  12) = (   1.0321056   0.2779750   0.1424891  )
        13           C   tau(  13) = (   0.9719763  -0.4094310   0.1424891  )
        14           C   tau(  14) = (   0.9719763  -0.9653810   0.1424891  )
        15           C   tau(  15) = (   1.2357820  -0.1633901   0.1424891  )
        16           C   tau(  16) = (   0.5677547  -0.5240158  -0.1424891  )
        17           C   tau(  17) = (   0.7682999  -0.5240158   0.1424891  )
        18           C   tau(  18) = (   1.4363272  -0.1633901   0.4274673  )
        19           H   tau(  19) = (   0.9998291  -0.4647280   0.0561239  )
        20           H   tau(  20) = (   0.3318018  -0.2226780  -0.0561239  )
        21           H   tau(  21) = (   1.0042528  -0.2226780   0.0561239  )
        22           H   tau(  22) = (   1.0042528   0.2226780   0.2288543  )
        23           H   tau(  23) = (   1.0042528  -0.2226780   0.2288543  )
        24           H   tau(  24) = (   1.6722801  -0.4647280   0.3411021  )
        25           H   tau(  25) = (   0.9998291  -0.4647280   0.2288543  )
        26           H   tau(  26) = (   0.9998291  -0.9100839   0.0561239  )
        27           H   tau(  27) = (   1.3407131  -0.1768314   0.1424891  )
        28           H   tau(  28) = (   0.6726858  -0.5105746  -0.1424891  )
        29           H   tau(  29) = (   0.6633688  -0.5105746   0.1424891  )
        30           H   tau(  30) = (   1.3313960  -0.1768314   0.4274673  )
        31           H   tau(  31) = (   0.7992553  -0.5766148   0.2292217  )
        32           H   tau(  32) = (   0.7992553  -0.7981972   0.0557565  )
        33           H   tau(  33) = (   1.2048266  -0.1107912   0.2292217  )
        34           H   tau(  34) = (   1.2048266   0.1107912   0.0557565  )
        35           H   tau(  35) = (   1.2048266  -0.1107912   0.0557565  )
        36           H   tau(  36) = (   1.2048266   0.1107912   0.2292217  )
        37           H   tau(  37) = (   0.7992553  -0.5766148   0.0557565  )
        38           H   tau(  38) = (   0.7992553  -0.7981972   0.2292217  )
        39           H   tau(  39) = (   0.8028664  -0.3456755   0.0603336  )
        40           H   tau(  40) = (   0.8028664   0.3456755   0.2246446  )
        41           H   tau(  41) = (   1.2012154  -0.3417304   0.0603336  )
        42           H   tau(  42) = (   0.5331881  -0.3456755  -0.0603336  )
        43           H   tau(  43) = (   1.2012154  -0.3417304   0.2246446  )
        44           H   tau(  44) = (   1.2012154  -1.0330815   0.0603336  )
        45           H   tau(  45) = (   0.8028664  -0.3456755   0.2246446  )
        46           H   tau(  46) = (   1.4708937  -0.3417304   0.3453117  )
        47           N   tau(  47) = (   1.1726966  -0.2895387   0.1424891  )
        48           N   tau(  48) = (   0.5046693  -0.3978672  -0.1424891  )
        49           N   tau(  49) = (   0.8313853  -0.3978672   0.1424891  )
        50           N   tau(  50) = (   1.4994126  -0.2895387   0.4274673  )

   Crystallographic axes

     site n.     atom                  positions (cryst. coord.)
         1           Pb  tau(   1) = (  0.6151946  0.7500000  0.8651946  )
         2           Pb  tau(   2) = (  0.3848054  0.2500000  0.1348054  )
         3           Br  tau(   3) = (  0.6030821  0.0436182  0.1467003  )
         4           Br  tau(   4) = (  0.1903184  0.4563818  0.1467003  )
[...]
     atom   22 type  4   force =     0.54538921    1.36358809   -1.73309797
     atom   23 type  4   force =     0.54538920   -1.36358810   -1.73309797
     atom   24 type  4   force =     0.54538920    1.36358810    1.73309797
     atom   25 type  4   force =    -0.54538920    1.36358810   -1.73309797
     atom   26 type  4   force =    -0.54538921   -1.36358809    1.73309797
     atom   27 type  4   force =    -1.96426095   -0.37812020   -0.00000000
     atom   28 type  4   force =    -1.96426095    0.37812019    0.00000000
     atom   29 type  4   force =     1.96426095    0.37812020    0.00000000
     atom   30 type  4   force =     1.96426095   -0.37812019    0.00000000
     atom   31 type  4   force =    -0.20202570    1.37250795   -1.52560886
     atom   32 type  4   force =    -0.20202570   -1.37250795    1.52560886
     atom   33 type  4   force =     0.20202567   -1.37250793   -1.52560889
     atom   34 type  4   force =     0.20202573    1.37250792    1.52560888
     atom   35 type  4   force =     0.20202570   -1.37250795    1.52560886
     atom   36 type  4   force =     0.20202570    1.37250795   -1.52560886
     atom   37 type  4   force =    -0.20202567    1.37250793    1.52560889
     atom   38 type  4   force =    -0.20202573   -1.37250792   -1.52560888
     atom   39 type  4   force =     0.95897590   -1.26395086    1.92075789
     atom   40 type  4   force =     0.95897586    1.26395084   -1.92075793
     atom   41 type  4   force =    -0.95897590    1.26395086    1.92075790
     atom   42 type  4   force =    -0.95897588   -1.26395085   -1.92075792
     atom   43 type  4   force =    -0.95897590    1.26395086   -1.92075789
     atom   44 type  4   force =    -0.95897586   -1.26395084    1.92075793
     atom   45 type  4   force =     0.95897590   -1.26395086   -1.92075790
     atom   46 type  4   force =     0.95897588    1.26395085    1.92075792
     atom   47 type  5   force =    -2.36102200    0.92858144    0.00000000
     atom   48 type  5   force =    -2.36102197   -0.92858097    0.00000000
     atom   49 type  5   force =     2.36102178   -0.92858119   -0.00000011
     atom   50 type  5   force =     2.36102178    0.92858119   -0.00000011
     The core correction contribution to forces
     atom    1 type  1   force =    -0.00375089    0.00000000    0.00000000
     atom    2 type  1   force =     0.00375089    0.00000000   -0.00000000
     atom    3 type  2   force =    -0.00015731    0.00114663   -0.00000000
     atom    4 type  2   force =    -0.00015731   -0.00114664   -0.00000000
     atom    5 type  2   force =     0.00015731   -0.00114663    0.00000000
     atom    6 type  2   force =     0.00015731    0.00114663    0.00000000
     atom    7 type  2   force =    -0.00138147   -0.00000000    0.00000000
     atom    8 type  2   force =     0.00138147    0.00000000    0.00000000
     atom    9 type  2   force =     0.00233175   -0.00000000    0.00000000
     atom   10 type  2   force =    -0.00233175    0.00000000    0.00000000
     atom   11 type  3   force =    -0.01371805    0.00694800   -0.00000000
     atom   12 type  3   force =    -0.01371805   -0.00694800   -0.00000000
     atom   13 type  3   force =     0.01371805   -0.00694800    0.00000000
     atom   14 type  3   force =     0.01371805    0.00694800   -0.00000000
     atom   15 type  3   force =     0.00655849    0.01516003   -0.00000000
     atom   16 type  3   force =     0.00655848   -0.01516003   -0.00000000
     atom   17 type  3   force =    -0.00655848   -0.01516003    0.00000000
     atom   18 type  3   force =    -0.00655848    0.01516003    0.00000000
     atom   19 type  4   force =     0.00000000    0.00000000    0.00000000
     atom   20 type  4   force =     0.00000000    0.00000000    0.00000000
     atom   21 type  4   force =     0.00000000    0.00000000    0.00000000
     atom   22 type  4   force =     0.00000000    0.00000000    0.00000000
     atom   23 type  4   force =     0.00000000    0.00000000    0.00000000
     atom   24 type  4   force =     0.00000000    0.00000000    0.00000000
     atom   25 type  4   force =     0.00000000    0.00000000    0.00000000
     atom   26 type  4   force =     0.00000000    0.00000000    0.00000000
     atom   27 type  4   force =     0.00000000    0.00000000    0.00000000
     atom   28 type  4   force =     0.00000000    0.00000000    0.00000000
     atom   29 type  4   force =     0.00000000    0.00000000    0.00000000
     atom   30 type  4   force =     0.00000000    0.00000000    0.00000000
     atom   31 type  4   force =     0.00000000    0.00000000    0.00000000
     atom   32 type  4   force =     0.00000000    0.00000000    0.00000000
     atom   33 type  4   force =     0.00000000    0.00000000    0.00000000
     atom   34 type  4   force =     0.00000000    0.00000000    0.00000000
     atom   35 type  4   force =     0.00000000    0.00000000    0.00000000
     atom   36 type  4   force =     0.00000000    0.00000000    0.00000000
     atom   37 type  4   force =     0.00000000    0.00000000    0.00000000
     atom   38 type  4   force =     0.00000000    0.00000000    0.00000000
     atom   39 type  4   force =     0.00000000    0.00000000    0.00000000
     atom   40 type  4   force =     0.00000000    0.00000000    0.00000000
     atom   41 type  4   force =     0.00000000    0.00000000    0.00000000
     atom   42 type  4   force =     0.00000000    0.00000000    0.00000000
     atom   43 type  4   force =     0.00000000    0.00000000    0.00000000
     atom   44 type  4   force =     0.00000000    0.00000000    0.00000000
     atom   45 type  4   force =     0.00000000    0.00000000    0.00000000
     atom   46 type  4   force =     0.00000000    0.00000000    0.00000000
     atom   47 type  5   force =     0.00533276   -0.00891466   -0.00000000
     atom   48 type  5   force =     0.00533276    0.00891465   -0.00000000
     atom   49 type  5   force =    -0.00533275    0.00891466    0.00000000
     atom   50 type  5   force =    -0.00533275   -0.00891466    0.00000000
     The Hubbard contrib.    to forces
     atom    1 type  1   force =     0.00000000    0.00000000    0.00000000
     atom    2 type  1   force =     0.00000000    0.00000000    0.00000000
     atom    3 type  2   force =     0.00000000    0.00000000    0.00000000
     atom    4 type  2   force =     0.00000000    0.00000000    0.00000000
     atom    5 type  2   force =     0.00000000    0.00000000    0.00000000
     atom    6 type  2   force =     0.00000000    0.00000000    0.00000000
     atom    7 type  2   force =     0.00000000    0.00000000    0.00000000
     atom    8 type  2   force =     0.00000000    0.00000000    0.00000000
     atom    9 type  2   force =     0.00000000    0.00000000    0.00000000
     atom   10 type  2   force =     0.00000000    0.00000000    0.00000000
     atom   11 type  3   force =     0.00000000    0.00000000    0.00000000
     atom   12 type  3   force =     0.00000000    0.00000000    0.00000000
     atom   13 type  3   force =     0.00000000    0.00000000    0.00000000
     atom   14 type  3   force =     0.00000000    0.00000000    0.00000000
     atom   15 type  3   force =     0.00000000    0.00000000    0.00000000
     atom   16 type  3   force =     0.00000000    0.00000000    0.00000000
     atom   17 type  3   force =     0.00000000    0.00000000    0.00000000
     atom   18 type  3   force =     0.00000000    0.00000000    0.00000000
     atom   19 type  4   force =     0.00000000    0.00000000    0.00000000
     atom   20 type  4   force =     0.00000000    0.00000000    0.00000000
     atom   21 type  4   force =     0.00000000    0.00000000    0.00000000
     atom   22 type  4   force =     0.00000000    0.00000000    0.00000000
     atom   23 type  4   force =     0.00000000    0.00000000    0.00000000
     atom   24 type  4   force =     0.00000000    0.00000000    0.00000000
     atom   25 type  4   force =     0.00000000    0.00000000    0.00000000
     atom   26 type  4   force =     0.00000000    0.00000000    0.00000000
     atom   27 type  4   force =     0.00000000    0.00000000    0.00000000
     atom   28 type  4   force =     0.00000000    0.00000000    0.00000000
     atom   29 type  4   force =     0.00000000    0.00000000    0.00000000
     atom   30 type  4   force =     0.00000000    0.00000000    0.00000000
     atom   31 type  4   force =     0.00000000    0.00000000    0.00000000
     atom   32 type  4   force =     0.00000000    0.00000000    0.00000000
     atom   33 type  4   force =     0.00000000    0.00000000    0.00000000
     atom   34 type  4   force =     0.00000000    0.00000000    0.00000000
     atom   35 type  4   force =     0.00000000    0.00000000    0.00000000
     atom   36 type  4   force =     0.00000000    0.00000000    0.00000000
     atom   37 type  4   force =     0.00000000    0.00000000    0.00000000
     atom   38 type  4   force =     0.00000000    0.00000000    0.00000000
     atom   39 type  4   force =     0.00000000    0.00000000    0.00000000
     atom   40 type  4   force =     0.00000000    0.00000000    0.00000000
     atom   41 type  4   force =     0.00000000    0.00000000    0.00000000
     atom   42 type  4   force =     0.00000000    0.00000000    0.00000000
     atom   43 type  4   force =     0.00000000    0.00000000    0.00000000
     atom   44 type  4   force =     0.00000000    0.00000000    0.00000000
     atom   45 type  4   force =     0.00000000    0.00000000    0.00000000
     atom   46 type  4   force =     0.00000000    0.00000000    0.00000000
     atom   47 type  5   force =     0.00000000    0.00000000    0.00000000
     atom   48 type  5   force =     0.00000000    0.00000000    0.00000000
     atom   49 type  5   force =     0.00000000    0.00000000    0.00000000
     atom   50 type  5   force =     0.00000000    0.00000000    0.00000000
     The SCF correction term to forces
     atom    1 type  1   force =    -0.00000025    0.00000000   -0.00000000
     atom    2 type  1   force =     0.00000025   -0.00000000    0.00000000
     atom    3 type  2   force =    -0.00000003   -0.00000035    0.00000000
     atom    4 type  2   force =    -0.00000003    0.00000035    0.00000000
     atom    5 type  2   force =     0.00000003    0.00000035   -0.00000000
     atom    6 type  2   force =     0.00000003   -0.00000035   -0.00000000
     atom    7 type  2   force =     0.00000019   -0.00000000   -0.00000000
     atom    8 type  2   force =    -0.00000019   -0.00000000    0.00000000
     atom    9 type  2   force =    -0.00000039   -0.00000000   -0.00000000
     atom   10 type  2   force =     0.00000039    0.00000000    0.00000000
     atom   11 type  3   force =    -0.00000014    0.00000002    0.00000000
     atom   12 type  3   force =    -0.00000014   -0.00000002    0.00000000
     atom   13 type  3   force =     0.00000014   -0.00000002   -0.00000000
     atom   14 type  3   force =     0.00000014    0.00000002   -0.00000000
     atom   15 type  3   force =    -0.00000001    0.00000006   -0.00000000
     atom   16 type  3   force =    -0.00000001   -0.00000006   -0.00000000
     atom   17 type  3   force =     0.00000001   -0.00000006   -0.00000000
     atom   18 type  3   force =     0.00000001    0.00000006   -0.00000000
     atom   19 type  4   force =     0.00000003   -0.00000001   -0.00000001
     atom   20 type  4   force =     0.00000003    0.00000001    0.00000001
     atom   21 type  4   force =    -0.00000003    0.00000001   -0.00000001
     atom   22 type  4   force =    -0.00000003   -0.00000001    0.00000001
     atom   23 type  4   force =    -0.00000003    0.00000001    0.00000001
     atom   24 type  4   force =    -0.00000003   -0.00000001   -0.00000001
     atom   25 type  4   force =     0.00000003   -0.00000001    0.00000001
     atom   26 type  4   force =     0.00000003    0.00000001   -0.00000001
     atom   27 type  4   force =     0.00000002   -0.00000001   -0.00000000
     atom   28 type  4   force =     0.00000002    0.00000001    0.00000000
     atom   29 type  4   force =    -0.00000002    0.00000001   -0.00000000
     atom   30 type  4   force =    -0.00000002   -0.00000001   -0.00000000
     atom   31 type  4   force =     0.00000002   -0.00000001    0.00000001
     atom   32 type  4   force =     0.00000002    0.00000001   -0.00000001
     atom   33 type  4   force =    -0.00000002    0.00000001    0.00000001
     atom   34 type  4   force =    -0.00000002   -0.00000001   -0.00000001
     atom   35 type  4   force =    -0.00000002    0.00000001   -0.00000001
     atom   36 type  4   force =    -0.00000002   -0.00000001    0.00000001
     atom   37 type  4   force =     0.00000002   -0.00000001   -0.00000001
     atom   38 type  4   force =     0.00000002    0.00000001    0.00000001
     atom   39 type  4   force =    -0.00000001    0.00000005   -0.00000004
     atom   40 type  4   force =    -0.00000001   -0.00000005    0.00000004
     atom   41 type  4   force =     0.00000001   -0.00000005   -0.00000004
     atom   42 type  4   force =     0.00000001    0.00000005    0.00000004
     atom   43 type  4   force =     0.00000001   -0.00000005    0.00000004
     atom   44 type  4   force =     0.00000001    0.00000005   -0.00000004
     atom   45 type  4   force =    -0.00000001    0.00000005    0.00000004
     atom   46 type  4   force =    -0.00000001   -0.00000005   -0.00000004
     atom   47 type  5   force =    -0.00000005   -0.00000016    0.00000000
     atom   48 type  5   force =    -0.00000005    0.00000016    0.00000000
     atom   49 type  5   force =     0.00000005    0.00000016   -0.00000000
     atom   50 type  5   force =     0.00000005   -0.00000016   -0.00000000

     Total force =     0.000038     Total SCF correction =     0.000001

     Computing stress (Cartesian axis) and pressure

          total   stress  (Ry/bohr**3)                   (kbar)     P=        0.00
   0.00000002  -0.00000000  -0.00000000            0.00       -0.00       -0.00
   0.00000000  -0.00000003  -0.00000000            0.00       -0.01       -0.00
  -0.00000000   0.00000000   0.00000001           -0.00        0.00        0.00

     kinetic stress (kbar)   8989.76      0.00     -0.00
                                0.00   9015.92     -0.00
                                0.00     -0.00   8996.83

     local   stress (kbar)  -5333.96      0.00     -0.00
                                0.00  -3199.19     -0.00
                               -0.00     -0.00  -2785.90

     nonloc. stress (kbar)   -299.79     -0.00      0.00
                                0.00   -310.87     -0.00
                                0.00     -0.00   -359.84

     hartree stress (kbar)   3169.25      0.00     -0.00
                                0.00   2273.11     -0.00
                               -0.00     -0.00   2109.36

     exc-cor stress (kbar)   1676.10      0.00      0.00
                                0.00   1676.10      0.00
                                0.00      0.00   1676.10

     corecor stress (kbar)  -3796.22     -0.00     -0.00
                               -0.00  -3796.77      0.00
                               -0.00      0.00  -3798.80

     ewald   stress (kbar)  -4405.14     -0.00      0.00
                               -0.00  -5658.30      0.00
                                0.00      0.00  -5837.75

     hubbard stress (kbar)      0.00      0.00      0.00
                                0.00      0.00      0.00
                                0.00      0.00      0.00

     DFT-D   stress (kbar)      0.00      0.00      0.00
                                0.00      0.00      0.00
                                0.00      0.00      0.00

     XDM     stress (kbar)      0.00      0.00      0.00
                                0.00      0.00      0.00
                                0.00      0.00      0.00

     dft-nl  stress (kbar)      0.00      0.00      0.00
                                0.00      0.00      0.00
                                0.00      0.00      0.00

     TS-vdW  stress (kbar)      0.00      0.00      0.00
                                0.00      0.00      0.00
                                0.00      0.00      0.00

     MDB     stress (kbar)      0.00      0.00      0.00
                                0.00      0.00      0.00
                                0.00      0.00      0.00

     3D-RISM stress (kbar)      0.00      0.00      0.00
                                0.00      0.00      0.00
                                0.00      0.00      0.00

     Writing all to output data dir ./scf.save/

     General routines

     Parallel routines

   This run was terminated on:  10:27:41  23Jun2023

   JOB DONE.