     Program PWSCF v.7.1 starts on 30Aug2023 at 15:43:48

     Waiting for input...
     Reading input from standard input
Warning: card &CELL ignored
Warning: card PRESS_CONV_THR = 0.01 ignored
Warning: card / ignored

     Current dimensions of program PWSCF are:
     Max number of different atomic species (ntypx) = 10
     Max number of k-points (npk) =  40000
     Max angular momentum in pseudopotentials (lmaxx) =  4
     Message from routine setup:
     using ibrav=0 with symmetry is DISCOURAGED, use correct ibrav instead

     K-points division:     npool     =       2
     R & G space division:  proc/nbgrp/npool/nimage =      28
     Subspace diagonalization in iterative solution of the eigenvalue problem:
     a serial algorithm will be used

     Using Slab Decomposition

     bravais-lattice index     =            0
     lattice parameter (alat)  =      20.4147  a.u.
     unit-cell volume          =    4384.1849 (a.u.)^3
     number of atoms/cell      =           50
     number of atomic types    =            5
     number of electrons       =       164.00
     number of Kohn-Sham states=           98
     kinetic-energy cutoff     =      60.0000  Ry
     charge density cutoff     =     240.0000  Ry
     scf convergence threshold =      1.0E-14
     mixing beta               =       0.5000
     number of iterations used =            8  plain     mixing
     Exchange-correlation= PBE
                           (   1   4   3   4   0   0   0)

     celldm(1)=  20.414728  celldm(2)=   0.000000  celldm(3)=   0.000000
     celldm(4)=   0.000000  celldm(5)=   0.000000  celldm(6)=   0.000000

     crystal axes: (cart. coord. in units of alat)
               a(1) = (   0.675983   0.681859   0.279491 )
               a(2) = (   0.675983  -0.681859   0.279491 )
               a(3) = (   0.675983  -0.681859  -0.279491 )

     reciprocal axes: (cart. coord. in units 2 pi/alat)
               b(1) = (  0.739663  0.733289  0.000000 )
               b(2) = (  0.000000 -0.733289  1.788967 )
               b(3) = (  0.739663 -0.000000 -1.788967 )

     PseudoPot. # 1 for Pb read from file:
     /home/rkarkee/merced_home_backup/rkarkee/pseudo/Pb.upf
     MD5 check sum: 465799cf2c9ea2062203eb79f5a7a375
     Pseudo is Norm-conserving + core correction, Zval = 14.0
     Generated using ONCVPSP code by D. R. Hamann
     Using radial grid of 1678 points,  6 beta functions with:
                l(1) =   0
                l(2) =   0
                l(3) =   1
                l(4) =   1
                l(5) =   2
                l(6) =   2

     PseudoPot. # 2 for Br read from file:
     /home/rkarkee/merced_home_backup/rkarkee/pseudo/Br.upf
     MD5 check sum: 68275ccec8d7d9019ef58dac33cdd12b
     Pseudo is Norm-conserving + core correction, Zval =  7.0
     Generated using ONCVPSP code by D. R. Hamann
     Using radial grid of 1098 points,  6 beta functions with:
                l(1) =   0
                l(2) =   0
                l(3) =   1
                l(4) =   1
                l(5) =   2
                l(6) =   2

     PseudoPot. # 3 for C  read from file:
     /home/rkarkee/merced_home_backup/rkarkee/pseudo/C.upf
     MD5 check sum: 34a24e64c0a39f27c6c36b90a16ac686
     Pseudo is Norm-conserving + core correction, Zval =  4.0
     Generated using ONCVPSP code by D. R. Hamann
     Using radial grid of 1248 points,  4 beta functions with:
                l(1) =   0
                l(2) =   0
                l(3) =   1
                l(4) =   1

     PseudoPot. # 4 for H  read from file:
     /home/rkarkee/merced_home_backup/rkarkee/pseudo/H.upf
     MD5 check sum: e96aa7e3e4a958db16958554ea960e2a
     Pseudo is Norm-conserving, Zval =  1.0
     Generated using ONCVPSP code by D. R. Hamann
     Using radial grid of 1166 points,  3 beta functions with:
                l(1) =   0
                l(2) =   0
                l(3) =   1

     PseudoPot. # 5 for N  read from file:
     /home/rkarkee/merced_home_backup/rkarkee/pseudo/N.upf
     MD5 check sum: d34365f73bb0e2ee98afc20ec3e87676
     Pseudo is Norm-conserving + core correction, Zval =  5.0
     Generated using ONCVPSP code by D. R. Hamann
     Using radial grid of 1058 points,  4 beta functions with:
                l(1) =   0
                l(2) =   0
                l(3) =   1
                l(4) =   1

     atomic species   valence    mass     pseudopotential
        Pb            14.00   207.20000     Pb( 1.00)
        Br             7.00    79.90000     Br( 1.00)
        C              4.00    12.01000     C ( 1.00)
        H              1.00     1.00800     H ( 1.00)
        N              5.00    14.01000     N ( 1.00)

      8 Sym. Ops., with inversion, found ( 4 have fractional translation)

                                    s                        frac. trans.

      isym =  1     identity

 cryst.   s( 1) = (     1          0          0      )
                  (     0          1          0      )
                  (     0          0          1      )

 cart.    s( 1) = (  1.0000000  0.0000000  0.0000000 )
                  ( -0.0000000  1.0000000 -0.0000000 )
                  (  0.0000000  0.0000000  1.0000000 )

      isym =  2     180 deg rotation - cart. axis [0,0,1]

 cryst.   s( 2) = (    -1          1         -1      )    f =(  0.0000000 )
                  (     0          0         -1      )       ( -0.5000000 )
                  (     0         -1          0      )       ( -0.5000000 )

 cart.    s( 2) = ( -1.0000000  0.0000000 -0.0000001 )    f =( -0.6759831 )
                  ( -0.0000000 -1.0000000 -0.0000002 )       (  0.6818590 )
                  (  0.0000001 -0.0000000  1.0000000 )       (  0.0000000 )

[...]

      isym =  4     180 deg rotation - cart. axis [1,0,0]

[...]

      isym =  5     inversion

[...]

      isym =  6     inv. 180 deg rotation - cart. axis [0,0,1]

[...]

 cryst.   s( 7) = (     0          1          0      )
                  (     1          0          0      )
                  (     1         -1          1      )

 cart.    s( 7) = (  1.0000000 -0.0000000 -0.0000000 )
                  (  0.0000001 -1.0000000 -0.0000002 )
                  (  0.0000000 -0.0000000  1.0000000 )

      isym =  8     inv. 180 deg rotation - cart. axis [1,0,0]

 cryst.   s( 8) = (     0          0         -1      )    f =(  0.0000000 )
                  (    -1          1         -1      )       ( -0.5000000 )
                  (    -1          0          0      )       ( -0.5000000 )

 cart.    s( 8) = ( -1.0000000  0.0000000 -0.0000001 )    f =( -0.6759831 )
                  ( -0.0000001  1.0000000 -0.0000000 )       (  0.6818590 )
                  (  0.0000001 -0.0000000  1.0000000 )       (  0.0000000 )

   Cartesian axes

     site n.     atom                  positions (alat units)
         1           Pb  tau(   1) = (   1.5075418  -0.6818590   0.1397454  )
         2           Pb  tau(   2) = (   0.5204074   0.0000000   0.1397454  )
         3           Br  tau(   3) = (   0.5385907   0.2793391   0.1397454  )
         4           Br  tau(   4) = (   0.5385907  -0.2793391   0.1397454  )
         5           Br  tau(   5) = (   1.4893586  -0.9611980   0.1397454  )
         6           Br  tau(   6) = (   1.4893586  -0.4025199   0.1397454  )
         7           Br  tau(   7) = (   1.2072256  -0.6818590   0.1397454  )
         8           Br  tau(   8) = (   0.8207237   0.0000000   0.1397454  )
         9           Br  tau(   9) = (   1.1001315   0.0000000   0.4192362  )
        10           Br  tau(  10) = (   0.9278178  -0.6818590  -0.1397455  )
        11           C   tau(  11) = (   1.0435272  -0.2770472   0.1397454  )
        12           C   tau(  12) = (   1.0435272   0.2770473   0.1397454  )
        13           C   tau(  13) = (   0.9844221  -0.4048118   0.1397454  )
        14           C   tau(  14) = (   0.9844220  -0.9589062   0.1397454  )
        15           C   tau(  15) = (   1.2437548  -0.1666552   0.1397454  )
        16           C   tau(  16) = (   0.5677717  -0.5152038  -0.1397455  )
        17           C   tau(  17) = (   0.7841945  -0.5152038   0.1397454  )
        18           C   tau(  18) = (   1.4601776  -0.1666552   0.4192362  )
        19           H   tau(  19) = (   1.0102673  -0.4576497   0.0569380  )
        20           H   tau(  20) = (   0.3342842  -0.2242093  -0.0569381  )
        21           H   tau(  21) = (   1.0176820  -0.2242093   0.0569380  )
        22           H   tau(  22) = (   1.0176820   0.2242093   0.2225527  )
        23           H   tau(  23) = (   1.0176819  -0.2242093   0.2225527  )
        24           H   tau(  24) = (   1.6936651  -0.4576497   0.3364289  )
        25           H   tau(  25) = (   1.0102673  -0.4576497   0.2225527  )
        26           H   tau(  26) = (   1.0102673  -0.9060683   0.0569380  )
        27           H   tau(  27) = (   1.3437843  -0.1821188   0.1397454  )
        28           H   tau(  28) = (   0.6678012  -0.4997402  -0.1397455  )
        29           H   tau(  29) = (   0.6841650  -0.4997402   0.1397454  )
        30           H   tau(  30) = (   1.3601482  -0.1821188   0.4192362  )
        31           H   tau(  31) = (   0.8130520  -0.5655596   0.2229066  )
        32           H   tau(  32) = (   0.8130520  -0.7981584   0.0565842  )
        33           H   tau(  33) = (   1.2148973  -0.1162994   0.2229066  )
        34           H   tau(  34) = (   1.2148973   0.1162994   0.0565842  )
        35           H   tau(  35) = (   1.2148973  -0.1162993   0.0565842  )
        36           H   tau(  36) = (   1.2148973   0.1162994   0.2229066  )
        37           H   tau(  37) = (   0.8130520  -0.5655596   0.0565842  )
        38           H   tau(  38) = (   0.8130520  -0.7981584   0.2229066  )
        39           H   tau(  39) = (   0.8200186  -0.3429687   0.0611483  )
        40           H   tau(  40) = (   0.8200186   0.3429687   0.2183425  )
        41           H   tau(  41) = (   1.2079308  -0.3388903   0.0611483  )
        42           H   tau(  42) = (   0.5319476  -0.3429687  -0.0611483  )
        43           H   tau(  43) = (   1.2079307  -0.3388903   0.2183425  )
        44           H   tau(  44) = (   1.2079307  -1.0248277   0.0611483  )
        45           H   tau(  45) = (   0.8200186  -0.3429687   0.2183425  )
        46           H   tau(  46) = (   1.4960016  -0.3388903   0.3406391  )
        47           N   tau(  47) = (   1.1808313  -0.2891989   0.1397454  )
        48           N   tau(  48) = (   0.5048482  -0.3926600  -0.1397454  )
        49           N   tau(  49) = (   0.8471180  -0.3926601   0.1397454  )
        50           N   tau(  50) = (   1.5231010  -0.2891989   0.4192362  )

   Crystallographic axes

     site n.     atom                  positions (cryst. coord.)
         1           Pb  tau(   1) = (  0.6150736  0.7500000  0.8650736  )
         2           Pb  tau(   2) = (  0.3849264  0.2500000  0.1349264  )
         3           Br  tau(   3) = (  0.6032122  0.0451636  0.1483758  )
         4           Br  tau(   4) = (  0.1935395  0.4548364  0.1483758  )
         5           Br  tau(   5) = (  0.3967878  0.9548364  0.8516241  )
[...]
     atom   22 type  4   force =     0.54514450    1.42404738   -1.79879017
     atom   23 type  4   force =     0.54514682   -1.42404843   -1.79878877
     atom   24 type  4   force =     0.54514334    1.42404885    1.79878982
     atom   25 type  4   force =    -0.54514506    1.42404788   -1.79878958
     atom   26 type  4   force =    -0.54514656   -1.42404753    1.79878947
     atom   27 type  4   force =    -2.07372317   -0.40150103   -0.00000010
     atom   28 type  4   force =    -2.07372321    0.40150187    0.00000027
     atom   29 type  4   force =     2.07372322    0.40150114    0.00000006
     atom   30 type  4   force =     2.07372310   -0.40150164   -0.00000060
     atom   31 type  4   force =    -0.12495784    1.48222401   -1.60983691
     atom   32 type  4   force =    -0.12495778   -1.48222442    1.60983662
     atom   33 type  4   force =     0.12495626   -1.48222434   -1.60983712
     atom   34 type  4   force =     0.12495840    1.48222402    1.60983702
     atom   35 type  4   force =     0.12495726   -1.48222505    1.60983615
     atom   36 type  4   force =     0.12495708    1.48222528   -1.60983612
     atom   37 type  4   force =    -0.12495729    1.48222349    1.60983774
     atom   38 type  4   force =    -0.12495834   -1.48222341   -1.60983737
     atom   39 type  4   force =     1.01350199   -1.27007059    2.00906952
     atom   40 type  4   force =     1.01350099    1.27007088   -2.00906913
     atom   41 type  4   force =    -1.01350372    1.27007035    2.00906848
     atom   42 type  4   force =    -1.01350180   -1.27007115   -2.00906901
     atom   43 type  4   force =    -1.01350263    1.27006992   -2.00906916
     atom   44 type  4   force =    -1.01350287   -1.27006986    2.00906922
     atom   45 type  4   force =     1.01350095   -1.27006975   -2.00907049
     atom   46 type  4   force =     1.01350286    1.27006916    2.00907006
     atom   47 type  5   force =    -2.49796067    0.71290800    0.00000042
     atom   48 type  5   force =    -2.49796377   -0.71291761   -0.00000007
     atom   49 type  5   force =     2.49795313   -0.71290845    0.00000065
     atom   50 type  5   force =     2.49795290    0.71290800   -0.00000010
     The core correction contribution to forces
     atom    1 type  1   force =    -0.00335090   -0.00000000   -0.00000001
     atom    2 type  1   force =     0.00335188    0.00000000   -0.00000002
     atom    3 type  2   force =     0.00011787    0.00207728    0.00000005
     atom    4 type  2   force =     0.00011786   -0.00207727    0.00000005
     atom    5 type  2   force =    -0.00011802   -0.00207698    0.00000001
     atom    6 type  2   force =    -0.00011761    0.00207738    0.00000018
     atom    7 type  2   force =    -0.00241616   -0.00000000   -0.00000004
     atom    8 type  2   force =     0.00241630   -0.00000000   -0.00000004
     atom    9 type  2   force =     0.00507308    0.00000015    0.00000002
     atom   10 type  2   force =    -0.00507278    0.00000020    0.00000005
     atom   11 type  3   force =    -0.01528384    0.00816918    0.00000000
     atom   12 type  3   force =    -0.01528384   -0.00816915   -0.00000001
     atom   13 type  3   force =     0.01528387   -0.00816917    0.00000000
     atom   14 type  3   force =     0.01528386    0.00816915   -0.00000001
     atom   15 type  3   force =     0.00783476    0.01670854    0.00000001
     atom   16 type  3   force =     0.00783471   -0.01670853   -0.00000001
     atom   17 type  3   force =    -0.00783461   -0.01670854    0.00000004
     atom   18 type  3   force =    -0.00783468    0.01670857    0.00000001
     atom   19 type  4   force =     0.00000000    0.00000000    0.00000000
     atom   20 type  4   force =     0.00000000    0.00000000    0.00000000
     atom   21 type  4   force =     0.00000000    0.00000000    0.00000000
     atom   22 type  4   force =     0.00000000    0.00000000    0.00000000
     atom   23 type  4   force =     0.00000000    0.00000000    0.00000000
     atom   24 type  4   force =     0.00000000    0.00000000    0.00000000
     atom   25 type  4   force =     0.00000000    0.00000000    0.00000000
     atom   26 type  4   force =     0.00000000    0.00000000    0.00000000
     atom   27 type  4   force =     0.00000000    0.00000000    0.00000000
     atom   28 type  4   force =     0.00000000    0.00000000    0.00000000
     atom   29 type  4   force =     0.00000000    0.00000000    0.00000000
     atom   30 type  4   force =     0.00000000    0.00000000    0.00000000
     atom   31 type  4   force =     0.00000000    0.00000000    0.00000000
     atom   32 type  4   force =     0.00000000    0.00000000    0.00000000
     atom   33 type  4   force =     0.00000000    0.00000000    0.00000000
     atom   34 type  4   force =     0.00000000    0.00000000    0.00000000
     atom   35 type  4   force =     0.00000000    0.00000000    0.00000000
     atom   36 type  4   force =     0.00000000    0.00000000    0.00000000
     atom   37 type  4   force =     0.00000000    0.00000000    0.00000000
     atom   38 type  4   force =     0.00000000    0.00000000    0.00000000
     atom   39 type  4   force =     0.00000000    0.00000000    0.00000000
     atom   40 type  4   force =     0.00000000    0.00000000    0.00000000
     atom   41 type  4   force =     0.00000000    0.00000000    0.00000000
     atom   42 type  4   force =     0.00000000    0.00000000    0.00000000
     atom   43 type  4   force =     0.00000000    0.00000000    0.00000000
     atom   44 type  4   force =     0.00000000    0.00000000    0.00000000
     atom   45 type  4   force =     0.00000000    0.00000000    0.00000000
     atom   46 type  4   force =     0.00000000    0.00000000    0.00000000
     atom   47 type  5   force =     0.00467143   -0.00713009    0.00000001
     atom   48 type  5   force =     0.00467151    0.00713037    0.00000006
     atom   49 type  5   force =    -0.00467119    0.00713008    0.00000001
     atom   50 type  5   force =    -0.00467120   -0.00713008    0.00000001
     The Hubbard contrib.    to forces
     atom    1 type  1   force =     0.00000000    0.00000000    0.00000000
     atom    2 type  1   force =     0.00000000    0.00000000    0.00000000
     atom    3 type  2   force =     0.00000000    0.00000000    0.00000000
     atom    4 type  2   force =     0.00000000    0.00000000    0.00000000
     atom    5 type  2   force =     0.00000000    0.00000000    0.00000000
     atom    6 type  2   force =     0.00000000    0.00000000    0.00000000
     atom    7 type  2   force =     0.00000000    0.00000000    0.00000000
     atom    8 type  2   force =     0.00000000    0.00000000    0.00000000
     atom    9 type  2   force =     0.00000000    0.00000000    0.00000000
     atom   10 type  2   force =     0.00000000    0.00000000    0.00000000
     atom   11 type  3   force =     0.00000000    0.00000000    0.00000000
     atom   12 type  3   force =     0.00000000    0.00000000    0.00000000
     atom   13 type  3   force =     0.00000000    0.00000000    0.00000000
     atom   14 type  3   force =     0.00000000    0.00000000    0.00000000
     atom   15 type  3   force =     0.00000000    0.00000000    0.00000000
     atom   16 type  3   force =     0.00000000    0.00000000    0.00000000
     atom   17 type  3   force =     0.00000000    0.00000000    0.00000000
     atom   18 type  3   force =     0.00000000    0.00000000    0.00000000
     atom   19 type  4   force =     0.00000000    0.00000000    0.00000000
     atom   20 type  4   force =     0.00000000    0.00000000    0.00000000
     atom   21 type  4   force =     0.00000000    0.00000000    0.00000000
     atom   22 type  4   force =     0.00000000    0.00000000    0.00000000
     atom   23 type  4   force =     0.00000000    0.00000000    0.00000000
     atom   24 type  4   force =     0.00000000    0.00000000    0.00000000
     atom   25 type  4   force =     0.00000000    0.00000000    0.00000000
     atom   26 type  4   force =     0.00000000    0.00000000    0.00000000
     atom   27 type  4   force =     0.00000000    0.00000000    0.00000000
     atom   28 type  4   force =     0.00000000    0.00000000    0.00000000
     atom   29 type  4   force =     0.00000000    0.00000000    0.00000000
     atom   30 type  4   force =     0.00000000    0.00000000    0.00000000
     atom   31 type  4   force =     0.00000000    0.00000000    0.00000000
     atom   32 type  4   force =     0.00000000    0.00000000    0.00000000
     atom   33 type  4   force =     0.00000000    0.00000000    0.00000000
     atom   34 type  4   force =     0.00000000    0.00000000    0.00000000
     atom   35 type  4   force =     0.00000000    0.00000000    0.00000000
     atom   36 type  4   force =     0.00000000    0.00000000    0.00000000
     atom   37 type  4   force =     0.00000000    0.00000000    0.00000000
     atom   38 type  4   force =     0.00000000    0.00000000    0.00000000
     atom   39 type  4   force =     0.00000000    0.00000000    0.00000000
     atom   40 type  4   force =     0.00000000    0.00000000    0.00000000
     atom   41 type  4   force =     0.00000000    0.00000000    0.00000000
     atom   42 type  4   force =     0.00000000    0.00000000    0.00000000
     atom   43 type  4   force =     0.00000000    0.00000000    0.00000000
     atom   44 type  4   force =     0.00000000    0.00000000    0.00000000
     atom   45 type  4   force =     0.00000000    0.00000000    0.00000000
     atom   46 type  4   force =     0.00000000    0.00000000    0.00000000
     atom   47 type  5   force =     0.00000000    0.00000000    0.00000000
     atom   48 type  5   force =     0.00000000    0.00000000    0.00000000
     atom   49 type  5   force =     0.00000000    0.00000000    0.00000000
     atom   50 type  5   force =     0.00000000    0.00000000    0.00000000
     The SCF correction term to forces
     atom    1 type  1   force =     0.00000000    0.00000000    0.00000000
     atom    2 type  1   force =    -0.00000000    0.00000000    0.00000000
     atom    3 type  2   force =    -0.00000001    0.00000001   -0.00000000
     atom    4 type  2   force =    -0.00000001   -0.00000001   -0.00000000
     atom    5 type  2   force =     0.00000001   -0.00000001    0.00000000
     atom    6 type  2   force =     0.00000001    0.00000001   -0.00000000
     atom    7 type  2   force =    -0.00000000    0.00000000   -0.00000000
     atom    8 type  2   force =     0.00000000    0.00000000   -0.00000000
     atom    9 type  2   force =     0.00000000   -0.00000000   -0.00000000
     atom   10 type  2   force =    -0.00000000   -0.00000000   -0.00000000
     atom   11 type  3   force =     0.00000000   -0.00000000    0.00000000
     atom   12 type  3   force =     0.00000000    0.00000000    0.00000000
     atom   13 type  3   force =    -0.00000000    0.00000000    0.00000000
     atom   14 type  3   force =    -0.00000000   -0.00000000    0.00000000
     atom   15 type  3   force =    -0.00000000   -0.00000000   -0.00000000
     atom   16 type  3   force =    -0.00000000    0.00000000    0.00000000
     atom   17 type  3   force =     0.00000000    0.00000000   -0.00000000
     atom   18 type  3   force =     0.00000000   -0.00000000    0.00000000
     atom   19 type  4   force =    -0.00000000    0.00000000    0.00000000
     atom   20 type  4   force =    -0.00000000   -0.00000000   -0.00000000
     atom   21 type  4   force =     0.00000000   -0.00000000    0.00000000
     atom   22 type  4   force =     0.00000000    0.00000000   -0.00000000
     atom   23 type  4   force =     0.00000000   -0.00000000   -0.00000000
     atom   24 type  4   force =     0.00000000    0.00000000    0.00000000
     atom   25 type  4   force =    -0.00000000    0.00000000   -0.00000000
     atom   26 type  4   force =    -0.00000000   -0.00000000    0.00000000
     atom   27 type  4   force =    -0.00000000    0.00000000   -0.00000000
     atom   28 type  4   force =    -0.00000000   -0.00000000    0.00000000
     atom   29 type  4   force =     0.00000000   -0.00000000   -0.00000000
     atom   30 type  4   force =     0.00000000    0.00000000    0.00000000
     atom   31 type  4   force =    -0.00000000    0.00000000   -0.00000000
     atom   32 type  4   force =    -0.00000000   -0.00000000    0.00000000
     atom   33 type  4   force =     0.00000000   -0.00000000   -0.00000000
     atom   34 type  4   force =     0.00000000    0.00000000    0.00000000
     atom   35 type  4   force =     0.00000000   -0.00000000    0.00000000
     atom   36 type  4   force =     0.00000000    0.00000000   -0.00000000
     atom   37 type  4   force =    -0.00000000    0.00000000    0.00000000
     atom   38 type  4   force =    -0.00000000   -0.00000000   -0.00000000
     atom   39 type  4   force =     0.00000000   -0.00000000    0.00000000
     atom   40 type  4   force =     0.00000000    0.00000000   -0.00000000
     atom   41 type  4   force =    -0.00000000    0.00000000    0.00000000
     atom   42 type  4   force =    -0.00000000   -0.00000000   -0.00000000
     atom   43 type  4   force =    -0.00000000    0.00000000   -0.00000000
     atom   44 type  4   force =    -0.00000000   -0.00000000    0.00000000
     atom   45 type  4   force =     0.00000000   -0.00000000   -0.00000000
     atom   46 type  4   force =     0.00000000    0.00000000    0.00000000
     atom   47 type  5   force =     0.00000001    0.00000001    0.00000000
     atom   48 type  5   force =     0.00000001   -0.00000001    0.00000000
     atom   49 type  5   force =    -0.00000001   -0.00000001    0.00000000
     atom   50 type  5   force =    -0.00000001    0.00000001    0.00000000

     Total force =     0.000002     Total SCF correction =     0.000000

     Computing stress (Cartesian axis) and pressure

          total   stress  (Ry/bohr**3)                   (kbar)     P=       -0.01
  -0.00000012   0.00000000  -0.00000000           -0.02        0.00       -0.00
   0.00000000   0.00000002   0.00000000            0.00        0.00        0.00
  -0.00000000   0.00000000  -0.00000001           -0.00        0.00       -0.00

     kinetic stress (kbar)   8158.58     -0.00      0.00
                               -0.00   8184.01      0.00
                                0.00      0.00   8158.40

     local   stress (kbar)  -5221.18     -0.00      0.00
                               -0.00  -3204.97      0.00
                                0.00      0.00  -3020.64

     nonloc. stress (kbar)   -348.45      0.00     -0.00
                                0.00   -359.51     -0.00
                               -0.00     -0.00   -403.48

     hartree stress (kbar)   3090.15      0.00     -0.00
                                0.00   2230.29     -0.00
                               -0.00     -0.00   2167.23

     exc-cor stress (kbar)   1487.41      0.00     -0.00
                                0.00   1487.30     -0.00
                               -0.00     -0.00   1491.88

     corecor stress (kbar)  -3455.53     -0.00      0.00
                               -0.00  -3456.33      0.00
                                0.00      0.00  -3458.73

     ewald   stress (kbar)  -3710.98      0.00     -0.00
                                0.00  -4880.80      0.00
                               -0.00      0.00  -4934.66

     hubbard stress (kbar)      0.00      0.00      0.00
                                0.00      0.00      0.00
                                0.00      0.00      0.00

     DFT-D   stress (kbar)      0.00      0.00      0.00
                                0.00      0.00      0.00
                                0.00      0.00      0.00

     XDM     stress (kbar)      0.00      0.00      0.00
                                0.00      0.00      0.00
                                0.00      0.00      0.00

     dft-nl  stress (kbar)      0.00      0.00      0.00
                                0.00      0.00      0.00
                                0.00      0.00      0.00

     TS-vdW  stress (kbar)      0.00      0.00      0.00
                                0.00      0.00      0.00
                                0.00      0.00      0.00

     MDB     stress (kbar)      0.00      0.00      0.00
                                0.00      0.00      0.00
                                0.00      0.00      0.00

     3D-RISM stress (kbar)      0.00      0.00      0.00
                                0.00      0.00      0.00
                                0.00      0.00      0.00

     Writing all to output data dir ./scf1.save/

     General routines

     Parallel routines

   This run was terminated on:  15:44:31  30Aug2023

   JOB DONE.