     Program PWSCF v.7.1 starts on 16Apr2023 at 22: 4:47

     Waiting for input...
     Reading input from standard input
     Message from routine wypos:
     wyckoff position not found, assuming x y z
     Message from routine wypos:
     wyckoff position not found, assuming x y z
     Message from routine wypos:
     wyckoff position not found, assuming x y z

     Current dimensions of program PWSCF are:
     Max number of different atomic species (ntypx) = 10
     Max number of k-points (npk) =  40000
     Max angular momentum in pseudopotentials (lmaxx) =  4
     Message from routine iosys:
     calculation=vc-relax: ion dynamics fire ignored, 'bfgs' assumed

     K-points division:     npool     =       2
     R & G space division:  proc/nbgrp/npool/nimage =      28
     Subspace diagonalization in iterative solution of the eigenvalue problem:
     a serial algorithm will be used

     Using Slab Decomposition

     bravais-lattice index     =           11
     lattice parameter (alat)  =      27.6335  a.u.
     unit-cell volume          =    4339.0863 (a.u.)^3
     number of atoms/cell      =           50
     number of atomic types    =            5
     number of electrons       =       164.00
     number of Kohn-Sham states=           82
     kinetic-energy cutoff     =      60.0000  Ry
     charge density cutoff     =     240.0000  Ry
     scf convergence threshold =      1.0E-12
     mixing beta               =       0.5000
     number of iterations used =            8  plain     mixing
     energy convergence thresh.=      1.0E-04
     force convergence thresh. =      1.0E-03
     press convergence thresh. =      1.0E-02
     Exchange-correlation= PBE
                           (   1   4   3   4   0   0   0)
     nstep                     =           50

     celldm(1)=  27.633465  celldm(2)=   0.417431  celldm(3)=   0.985229
     celldm(4)=   0.000000  celldm(5)=   0.000000  celldm(6)=   0.000000

     crystal axes: (cart. coord. in units of alat)
               a(1) = (   0.500000   0.208716   0.492614 )
               a(2) = (  -0.500000   0.208716   0.492614 )
               a(3) = (  -0.500000  -0.208716   0.492614 )

     reciprocal axes: (cart. coord. in units 2 pi/alat)
               b(1) = (  1.000000  0.000000  1.014993 )
               b(2) = ( -1.000000  2.395603  0.000000 )
               b(3) = (  0.000000 -2.395603  1.014993 )

     PseudoPot. # 1 for Pb read from file:
     /home/rkarkee/merced_home_backup/rkarkee/pseudo/Pb.upf
     MD5 check sum: 465799cf2c9ea2062203eb79f5a7a375
     Pseudo is Norm-conserving + core correction, Zval = 14.0
     Generated using ONCVPSP code by D. R. Hamann
     Using radial grid of 1678 points,  6 beta functions with:
                l(1) =   0
                l(2) =   0
                l(3) =   1
                l(4) =   1
                l(5) =   2
                l(6) =   2

     PseudoPot. # 2 for Br read from file:
     /home/rkarkee/merced_home_backup/rkarkee/pseudo/Br.upf
     MD5 check sum: 68275ccec8d7d9019ef58dac33cdd12b
     Pseudo is Norm-conserving + core correction, Zval =  7.0
     Generated using ONCVPSP code by D. R. Hamann
     Using radial grid of 1098 points,  6 beta functions with:
                l(1) =   0
                l(2) =   0
                l(3) =   1
                l(4) =   1
                l(5) =   2
                l(6) =   2

     PseudoPot. # 3 for C  read from file:
     /home/rkarkee/merced_home_backup/rkarkee/pseudo/C.upf
     MD5 check sum: 34a24e64c0a39f27c6c36b90a16ac686
     Pseudo is Norm-conserving + core correction, Zval =  4.0
     Generated using ONCVPSP code by D. R. Hamann
     Using radial grid of 1248 points,  4 beta functions with:
                l(1) =   0
                l(2) =   0
                l(3) =   1
                l(4) =   1

     PseudoPot. # 4 for H  read from file:
     /home/rkarkee/merced_home_backup/rkarkee/pseudo/H.upf
     MD5 check sum: e96aa7e3e4a958db16958554ea960e2a
     Pseudo is Norm-conserving, Zval =  1.0
     Generated using ONCVPSP code by D. R. Hamann
     Using radial grid of 1166 points,  3 beta functions with:
                l(1) =   0
                l(2) =   0
                l(3) =   1

     PseudoPot. # 5 for N  read from file:
     /home/rkarkee/merced_home_backup/rkarkee/pseudo/N.upf
     MD5 check sum: d34365f73bb0e2ee98afc20ec3e87676
     Pseudo is Norm-conserving + core correction, Zval =  5.0
     Generated using ONCVPSP code by D. R. Hamann
     Using radial grid of 1058 points,  4 beta functions with:
                l(1) =   0
                l(2) =   0
                l(3) =   1
                l(4) =   1

     atomic species   valence    mass     pseudopotential
        Pb            14.00   207.20000     Pb( 1.00)
        Br             7.00    79.90000     Br( 1.00)
        C              4.00    12.01000     C ( 1.00)
        H              1.00     1.00800     H ( 1.00)
        N              5.00    14.01000     N ( 1.00)

      8 Sym. Ops., with inversion, found ( 4 have fractional translation)

                                    s                        frac. trans.

      isym =  1     identity

 cryst.   s( 1) = (     1          0          0      )
                  (     0          1          0      )
                  (     0          0          1      )

 cart.    s( 1) = (  1.0000000  0.0000000  0.0000000 )
                  ( -0.0000000  1.0000000 -0.0000000 )
                  (  0.0000000  0.0000000  1.0000000 )

      isym =  2     180 deg rotation - cart. axis [0,0,1]

 cryst.   s( 2) = (     0          0          1      )    f =(  0.0000000 )
                  (     1         -1          1      )       ( -0.5000000 )
                  (     1          0          0      )       (  0.5000000 )

 cart.    s( 2) = ( -1.0000000  0.0000000  0.0000000 )    f =(  0.0000000 )
                  (  0.0000000 -1.0000000 -0.0000000 )       ( -0.2087157 )
                  (  0.0000000 -0.0000000  1.0000000 )       (  0.0000000 )

[...]

      isym =  4     180 deg rotation - cart. axis [1,0,0]

[...]

      isym =  5     inversion

[...]

      isym =  6     inv. 180 deg rotation - cart. axis [0,0,1]

[...]

 cryst.   s( 7) = (     1         -1          1      )    f =(  0.0000000 )
                  (     0          0          1      )       ( -0.5000000 )
                  (     0          1          0      )       (  0.5000000 )

 cart.    s( 7) = (  1.0000000  0.0000000  0.0000000 )    f =(  0.0000000 )
                  (  0.0000000 -1.0000000 -0.0000000 )       ( -0.2087157 )
                  (  0.0000000 -0.0000000  1.0000000 )       (  0.0000000 )

      isym =  8     inv. 180 deg rotation - cart. axis [1,0,0]

 cryst.   s( 8) = (     0          1          0      )
                  (     1          0          0      )
                  (     1         -1          1      )

 cart.    s( 8) = ( -1.0000000  0.0000000  0.0000000 )
                  ( -0.0000000  1.0000000 -0.0000000 )
                  (  0.0000000  0.0000000  1.0000000 )

     point group D_2h (mmm)
     there are  8 classes
     the character table:

       E     C2    C2'   C2''  i     s_v   s_v'  s_v''
A_g    1.00  1.00  1.00  1.00  1.00  1.00  1.00  1.00
B_1g   1.00  1.00 -1.00 -1.00  1.00  1.00 -1.00 -1.00
B_2g   1.00 -1.00  1.00 -1.00  1.00 -1.00  1.00 -1.00
B_3g   1.00 -1.00 -1.00  1.00  1.00 -1.00 -1.00  1.00
A_u    1.00  1.00  1.00  1.00 -1.00 -1.00 -1.00 -1.00
B_1u   1.00  1.00 -1.00 -1.00 -1.00 -1.00  1.00  1.00
B_2u   1.00 -1.00  1.00 -1.00 -1.00  1.00 -1.00  1.00
B_3u   1.00 -1.00 -1.00  1.00 -1.00  1.00  1.00 -1.00

     the symmetry operations in each class and the name of the first element:

     E        1
          identity
     C2       2
          180 deg rotation - cart. axis [0,0,1]
     C2'      4
          180 deg rotation - cart. axis [1,0,0]
     C2''     3
          180 deg rotation - cart. axis [0,1,0]
     i        5
          inversion
     s_v      6
          inv. 180 deg rotation - cart. axis [0,0,1]
     s_v'     8
          inv. 180 deg rotation - cart. axis [1,0,0]
     s_v''    7
          inv. 180 deg rotation - cart. axis [0,1,0]

   Cartesian axes

     site n.     atom                  positions (alat units)
         1           Pb  tau(   1) = (  -0.5000000   0.1043579   1.0990522  )
         2           Pb  tau(   2) = (   0.0000000   0.1043579   0.3787909  )
         3           Br  tau(   3) = (   0.2047100   0.1043579   0.3910077  )
         4           Br  tau(   4) = (  -0.2047100   0.1043579   0.3910077  )
         5           Br  tau(   5) = (  -0.7047100   0.1043579   1.0868353  )
         6           Br  tau(   6) = (  -0.2952900   0.1043579   1.0868353  )
         7           Br  tau(   7) = (  -0.5000000   0.1043579   0.8773757  )
         8           Br  tau(   8) = (   0.0000000   0.1043579   0.6004673  )
         9           Br  tau(   9) = (   0.0000000   0.3130736   0.8010402  )
        10           Br  tau(  10) = (  -0.5000000  -0.1043579   0.6768029  )
        11           C   tau(  11) = (  -0.2030000   0.1043579   0.7616803  )
        12           C   tau(  12) = (   0.2030000   0.1043579   0.7616803  )
        13           C   tau(  13) = (  -0.2970000   0.1043579   0.7161628  )
        14           C   tau(  14) = (  -0.7030000   0.1043579   0.7161628  )
        15           C   tau(  15) = (  -0.1221000   0.1043579   0.9089720  )
        16           C   tau(  16) = (  -0.3779000  -0.1043579   0.4163577  )
        17           C   tau(  17) = (  -0.3779000   0.1043579   0.5688711  )
        18           C   tau(  18) = (  -0.1221000   0.3130736   1.0614854  )
        19           H   tau(  19) = (  -0.3317000   0.0495491   0.7355718  )
        20           H   tau(  20) = (  -0.1683000  -0.0495491   0.2429574  )
        21           H   tau(  21) = (  -0.1683000   0.0495491   0.7422713  )
        22           H   tau(  22) = (   0.1683000   0.1591666   0.7422713  )
        23           H   tau(  23) = (  -0.1683000   0.1591666   0.7422713  )
        24           H   tau(  24) = (  -0.3317000   0.2582648   1.2348857  )
        25           H   tau(  25) = (  -0.3317000   0.1591666   0.7355718  )
        26           H   tau(  26) = (  -0.6683000   0.0495491   0.7355718  )
        27           H   tau(  27) = (  -0.1309000   0.1043579   0.9748838  )
        28           H   tau(  28) = (  -0.3691000  -0.1043579   0.4822695  )
        29           H   tau(  29) = (  -0.3691000   0.1043579   0.5029593  )
        30           H   tau(  30) = (  -0.1309000   0.3130736   0.9955736  )
        31           H   tau(  31) = (  -0.4121500   0.1586657   0.5866052  )
        32           H   tau(  32) = (  -0.5878500   0.0500500   0.5866052  )
        33           H   tau(  33) = (  -0.0878500   0.1586657   0.8912379  )
        34           H   tau(  34) = (   0.0878500   0.0500500   0.8912379  )
        35           H   tau(  35) = (  -0.0878500   0.0500500   0.8912379  )
        36           H   tau(  36) = (   0.0878500   0.1586657   0.8912379  )
        37           H   tau(  37) = (  -0.4121500   0.0500500   0.5866052  )
[...]
     atom   29 type  4   force =     0.00000000    0.00000000    0.00000000
     atom   30 type  4   force =     0.00000000    0.00000000    0.00000000
     atom   31 type  4   force =     0.00000000    0.00000000    0.00000000
     atom   32 type  4   force =     0.00000000    0.00000000    0.00000000
     atom   33 type  4   force =     0.00000000    0.00000000    0.00000000
     atom   34 type  4   force =     0.00000000    0.00000000    0.00000000
     atom   35 type  4   force =     0.00000000    0.00000000    0.00000000
     atom   36 type  4   force =     0.00000000    0.00000000    0.00000000
     atom   37 type  4   force =     0.00000000    0.00000000    0.00000000
     atom   38 type  4   force =     0.00000000    0.00000000    0.00000000
     atom   39 type  4   force =     0.00000000    0.00000000    0.00000000
     atom   40 type  4   force =     0.00000000    0.00000000    0.00000000
     atom   41 type  4   force =     0.00000000    0.00000000    0.00000000
     atom   42 type  4   force =     0.00000000    0.00000000    0.00000000
     atom   43 type  4   force =     0.00000000    0.00000000    0.00000000
     atom   44 type  4   force =     0.00000000    0.00000000    0.00000000
     atom   45 type  4   force =     0.00000000    0.00000000    0.00000000
     atom   46 type  4   force =     0.00000000    0.00000000    0.00000000
     atom   47 type  5   force =    -0.00705771   -0.00000000    0.00460287
     atom   48 type  5   force =     0.00705771    0.00000000    0.00460287
     atom   49 type  5   force =     0.00705771   -0.00000000   -0.00460287
     atom   50 type  5   force =    -0.00705771    0.00000000   -0.00460287
     The Hubbard contrib.    to forces
     atom    1 type  1   force =     0.00000000    0.00000000    0.00000000
     atom    2 type  1   force =     0.00000000    0.00000000    0.00000000
     atom    3 type  2   force =     0.00000000    0.00000000    0.00000000
     atom    4 type  2   force =     0.00000000    0.00000000    0.00000000
     atom    5 type  2   force =     0.00000000    0.00000000    0.00000000
     atom    6 type  2   force =     0.00000000    0.00000000    0.00000000
     atom    7 type  2   force =     0.00000000    0.00000000    0.00000000
     atom    8 type  2   force =     0.00000000    0.00000000    0.00000000
     atom    9 type  2   force =     0.00000000    0.00000000    0.00000000
     atom   10 type  2   force =     0.00000000    0.00000000    0.00000000
     atom   11 type  3   force =     0.00000000    0.00000000    0.00000000
     atom   12 type  3   force =     0.00000000    0.00000000    0.00000000
     atom   13 type  3   force =     0.00000000    0.00000000    0.00000000
     atom   14 type  3   force =     0.00000000    0.00000000    0.00000000
     atom   15 type  3   force =     0.00000000    0.00000000    0.00000000
     atom   16 type  3   force =     0.00000000    0.00000000    0.00000000
     atom   17 type  3   force =     0.00000000    0.00000000    0.00000000
     atom   18 type  3   force =     0.00000000    0.00000000    0.00000000
     atom   19 type  4   force =     0.00000000    0.00000000    0.00000000
     atom   20 type  4   force =     0.00000000    0.00000000    0.00000000
     atom   21 type  4   force =     0.00000000    0.00000000    0.00000000
     atom   22 type  4   force =     0.00000000    0.00000000    0.00000000
     atom   23 type  4   force =     0.00000000    0.00000000    0.00000000
     atom   24 type  4   force =     0.00000000    0.00000000    0.00000000
     atom   25 type  4   force =     0.00000000    0.00000000    0.00000000
     atom   26 type  4   force =     0.00000000    0.00000000    0.00000000
     atom   27 type  4   force =     0.00000000    0.00000000    0.00000000
     atom   28 type  4   force =     0.00000000    0.00000000    0.00000000
     atom   29 type  4   force =     0.00000000    0.00000000    0.00000000
     atom   30 type  4   force =     0.00000000    0.00000000    0.00000000
     atom   31 type  4   force =     0.00000000    0.00000000    0.00000000
     atom   32 type  4   force =     0.00000000    0.00000000    0.00000000
     atom   33 type  4   force =     0.00000000    0.00000000    0.00000000
     atom   34 type  4   force =     0.00000000    0.00000000    0.00000000
     atom   35 type  4   force =     0.00000000    0.00000000    0.00000000
     atom   36 type  4   force =     0.00000000    0.00000000    0.00000000
     atom   37 type  4   force =     0.00000000    0.00000000    0.00000000
     atom   38 type  4   force =     0.00000000    0.00000000    0.00000000
     atom   39 type  4   force =     0.00000000    0.00000000    0.00000000
     atom   40 type  4   force =     0.00000000    0.00000000    0.00000000
     atom   41 type  4   force =     0.00000000    0.00000000    0.00000000
     atom   42 type  4   force =     0.00000000    0.00000000    0.00000000
     atom   43 type  4   force =     0.00000000    0.00000000    0.00000000
     atom   44 type  4   force =     0.00000000    0.00000000    0.00000000
     atom   45 type  4   force =     0.00000000    0.00000000    0.00000000
     atom   46 type  4   force =     0.00000000    0.00000000    0.00000000
     atom   47 type  5   force =     0.00000000    0.00000000    0.00000000
     atom   48 type  5   force =     0.00000000    0.00000000    0.00000000
     atom   49 type  5   force =     0.00000000    0.00000000    0.00000000
     atom   50 type  5   force =     0.00000000    0.00000000    0.00000000
     The SCF correction term to forces
     atom    1 type  1   force =     0.00000000   -0.00000000   -0.00000003
     atom    2 type  1   force =    -0.00000000    0.00000000    0.00000003
     atom    3 type  2   force =    -0.00000001   -0.00000000   -0.00000000
     atom    4 type  2   force =     0.00000001   -0.00000000   -0.00000000
     atom    5 type  2   force =     0.00000001    0.00000000    0.00000000
     atom    6 type  2   force =    -0.00000001    0.00000000    0.00000000
     atom    7 type  2   force =    -0.00000000   -0.00000000    0.00000000
     atom    8 type  2   force =     0.00000000    0.00000000   -0.00000000
     atom    9 type  2   force =     0.00000000   -0.00000000   -0.00000001
     atom   10 type  2   force =    -0.00000000    0.00000000    0.00000001
     atom   11 type  3   force =     0.00000001    0.00000000   -0.00000000
     atom   12 type  3   force =    -0.00000001   -0.00000000   -0.00000000
     atom   13 type  3   force =    -0.00000001   -0.00000000    0.00000000
     atom   14 type  3   force =     0.00000001    0.00000000    0.00000000
     atom   15 type  3   force =     0.00000000    0.00000000    0.00000001
     atom   16 type  3   force =    -0.00000000   -0.00000000    0.00000001
     atom   17 type  3   force =    -0.00000000   -0.00000000   -0.00000001
     atom   18 type  3   force =     0.00000000    0.00000000   -0.00000001
     atom   19 type  4   force =    -0.00000000   -0.00000000    0.00000000
     atom   20 type  4   force =     0.00000000    0.00000000    0.00000000
     atom   21 type  4   force =     0.00000000   -0.00000000   -0.00000000
     atom   22 type  4   force =    -0.00000000    0.00000000   -0.00000000
     atom   23 type  4   force =     0.00000000    0.00000000   -0.00000000
     atom   24 type  4   force =    -0.00000000   -0.00000000   -0.00000000
     atom   25 type  4   force =    -0.00000000    0.00000000    0.00000000
     atom   26 type  4   force =     0.00000000   -0.00000000    0.00000000
     atom   27 type  4   force =    -0.00000000    0.00000000   -0.00000000
     atom   28 type  4   force =     0.00000000    0.00000000   -0.00000000
     atom   29 type  4   force =     0.00000000   -0.00000000    0.00000000
     atom   30 type  4   force =    -0.00000000   -0.00000000    0.00000000
     atom   31 type  4   force =     0.00000000   -0.00000000   -0.00000000
     atom   32 type  4   force =    -0.00000000    0.00000000   -0.00000000
     atom   33 type  4   force =    -0.00000000   -0.00000000    0.00000000
     atom   34 type  4   force =     0.00000000    0.00000000    0.00000000
     atom   35 type  4   force =    -0.00000000    0.00000000    0.00000000
     atom   36 type  4   force =     0.00000000   -0.00000000    0.00000000
     atom   37 type  4   force =     0.00000000    0.00000000   -0.00000000
     atom   38 type  4   force =    -0.00000000   -0.00000000   -0.00000000
     atom   39 type  4   force =     0.00000000   -0.00000000   -0.00000000
     atom   40 type  4   force =    -0.00000000    0.00000000   -0.00000000
     atom   41 type  4   force =    -0.00000000   -0.00000000    0.00000000
     atom   42 type  4   force =     0.00000000    0.00000000    0.00000000
     atom   43 type  4   force =    -0.00000000    0.00000000    0.00000000
     atom   44 type  4   force =     0.00000000   -0.00000000    0.00000000
     atom   45 type  4   force =     0.00000000    0.00000000   -0.00000000
     atom   46 type  4   force =    -0.00000000   -0.00000000   -0.00000000
     atom   47 type  5   force =    -0.00000001    0.00000000    0.00000001
     atom   48 type  5   force =     0.00000001    0.00000000    0.00000001
     atom   49 type  5   force =     0.00000001   -0.00000000   -0.00000001
     atom   50 type  5   force =    -0.00000001   -0.00000000   -0.00000001

     Total force =     0.000184     Total SCF correction =     0.000000

     Computing stress (Cartesian axis) and pressure

          total   stress  (Ry/bohr**3)                   (kbar)     P=       -0.00
   0.00000031  -0.00000000  -0.00000000            0.05       -0.00       -0.00
  -0.00000000  -0.00000002   0.00000000           -0.00       -0.00        0.00
  -0.00000000   0.00000000  -0.00000032           -0.00        0.00       -0.05

     kinetic stress (kbar)   8218.69     -0.00      0.00
                               -0.00   8192.44     -0.00
                                0.00     -0.00   8193.47

     local   stress (kbar)  -3202.76      0.00      0.00
                                0.00  -2952.75     -0.00
                                0.00     -0.00  -5235.42

     nonloc. stress (kbar)   -361.14      0.00     -0.00
                                0.00   -405.09      0.00
                               -0.00      0.00   -350.38

     hartree stress (kbar)   2232.00      0.00     -0.00
                                0.00   2143.04      0.00
                               -0.00      0.00   3098.08

     exc-cor stress (kbar)   1493.49      0.00     -0.00
                                0.00   1497.99      0.00
                               -0.00      0.00   1493.63

     corecor stress (kbar)  -3470.83     -0.00      0.00
                               -0.00  -3473.20     -0.00
                                0.00     -0.00  -3470.04

     ewald   stress (kbar)  -4909.41     -0.00     -0.00
                               -0.00  -5002.45      0.00
                               -0.00      0.00  -3729.38

     hubbard stress (kbar)      0.00      0.00      0.00
                                0.00      0.00      0.00
                                0.00      0.00      0.00

     DFT-D   stress (kbar)      0.00      0.00      0.00
                                0.00      0.00      0.00
                                0.00      0.00      0.00

     XDM     stress (kbar)      0.00      0.00      0.00
                                0.00      0.00      0.00
                                0.00      0.00      0.00

     dft-nl  stress (kbar)      0.00      0.00      0.00
                                0.00      0.00      0.00
                                0.00      0.00      0.00

     TS-vdW  stress (kbar)      0.00      0.00      0.00
                                0.00      0.00      0.00
                                0.00      0.00      0.00

     MDB     stress (kbar)      0.00      0.00      0.00
                                0.00      0.00      0.00
                                0.00      0.00      0.00

     3D-RISM stress (kbar)      0.00      0.00      0.00
                                0.00      0.00      0.00
                                0.00      0.00      0.00

     Energy error            =      8.4E-08 Ry
     Gradient error          =      4.1E-05 Ry/Bohr
     Cell gradient error     =      4.6E-02 kbar

     number of scf cycles    =  50
     number of bfgs steps    =  49

     enthalpy           old  =    -746.6199095435 Ry
     enthalpy           new  =    -746.6199096273 Ry

     CASE: enthalpy          _new < enthalpy          _old

     new trust radius        =       0.0003450589 bohr

     The maximum number of steps has been reached.

     End of BFGS Geometry Optimization
     new unit-cell volume =   4365.84731 a.u.^3 (   646.95182 Ang^3 )
     density =      3.16718 g/cm^3

CELL_PARAMETERS (alat= 27.63346540)
   0.502826278   0.207004263   0.496941472
  -0.502826278   0.207004263   0.496941472
  -0.502826278  -0.207004263   0.496941472

ATOMIC_POSITIONS (crystal)
Pb            0.6153451003        0.7500000000        0.8653451003
Pb            0.3846548997        0.2500000000        0.1346548997
Br            0.6028772032        0.0449552155        0.1478324187
Br            0.1927876342        0.4550447845        0.1478324187
Br            0.3971227968        0.9550447845        0.8521675813
Br            0.8072123658        0.5449552155        0.8521675813
Br            0.3924848376        0.7500000000        0.6424848376
Br            0.6075151624        0.2500000000        0.3575151624
Br            0.8149213239        0.7500000000        0.0649213239
Br            0.1850786761        0.2500000000        0.9350786761
C             0.5688883441        0.4530951537        0.5219834979
C             0.9750786516        0.0469048463        0.5219834979
C             0.4311116559        0.5469048463        0.4780165021
C             0.0249213484        0.9530951537        0.4780165021
C             0.7987114092        0.3720163105        0.6707277197
C             0.0427440302        0.1279836895        0.6707277197
C             0.2012885908        0.6279836895        0.3292722803
C             0.9572559698        0.8720163105        0.3292722803
H             0.4114865687        0.4379561499        0.6449733827
H             0.0829295326        0.0620438501        0.3494427186
H             0.5885134313        0.2665131860        0.6505572814
H             0.9170704674        0.2334868140        0.3550266173
H             0.5885134313        0.5620438501        0.3550266173
H             0.9170704674        0.9379561499        0.6505572814
H             0.4114865687        0.7334868140        0.3494427186
H             0.0829295326        0.7665131860        0.6449733827
H             0.8618059469        0.3832870370        0.7450929839
H             0.1283800209        0.1167129630        0.7450929839
H             0.1381940531        0.6167129630        0.2549070161
H             0.8716199791        0.8832870370        0.2549070161
H             0.1858237732        0.8133441800        0.2023591306
H             0.0157033106        0.6866558200        0.4991679532
H             0.8141762268        0.4834646426        0.5008320468
H             0.9842966894        0.0165353574        0.7976408694
H             0.8141762268        0.1866558200        0.7976408694
H             0.9842966894        0.3133441800        0.5008320468
H             0.1858237732        0.5165353574        0.4991679532
H             0.0157033106        0.9834646426        0.2023591306
H             0.3544170110        0.3612372204        0.4960551854
H             0.8572924058        0.1387627796        0.2156542314
H             0.6455829890        0.3583618256        0.7843457686
H             0.1427075942        0.1416381744        0.5039448146
H             0.6455829890        0.6387627796        0.5039448146
H             0.1427075942        0.8612372204        0.7843457686
H             0.3544170110        0.6416381744        0.2156542314
H             0.8572924058        0.8583618256        0.4960551854
N             0.6619536364        0.4620550235        0.6240086599
N             0.0860636833        0.0379449765        0.6240086599
N             0.3380463636        0.5379449765        0.3759913401
N             0.9139363167        0.9620550235        0.3759913401

     Writing config-only to output data dir ./scf.save/
     NEW-OLD atomic charge density approx. for the potential
     extrapolated charge  163.99847, renormalised to  164.00000

     Writing all to output data dir ./scf.save/

     General routines

     Parallel routines

   This run was terminated on:  22:23: 7  16Apr2023

   JOB DONE.