     Program PHONON v.7.1 starts on 30Aug2023 at 16:34:47

     K-points division:     npool     =       4
     R & G space division:  proc/nbgrp/npool/nimage =      42

     Waiting for input...
     Reading input from standard input
      Title line not specified: using 'default'.
     Run is not recoverable starting from scratch

     Reading xml data from directory:

     ./scf1.save/

     IMPORTANT: XC functional enforced from input :
     Exchange-correlation= PBE
                           (   1   4   3   4   0   0   0)
     Any further DFT definition will be discarded
     Please, verify this is what you really want

     Using Pencil Decomposition

     Reading collected, re-writing distributed wavefunctions
  autoval = -.3154E+02
     Irreps are as follows:

                     mode #   1
                     (   0.00000   0.00000   )
                     (   0.00000   0.00000   )
                     (   0.00000   0.00000   )
                     (   0.00000   0.00000   )
                     (   0.00000   0.00000   )
                     (   0.00000   0.00000   )
                     (   0.00000   0.00000   )
                     (   0.00000   0.00000   )
                     (   0.00000   0.00000   )
                     (   0.00000   0.00000   )
                     (   0.00000   0.00000   )
                     (   0.00000   0.00000   )
                     (   0.00000   0.00000   )
                     (   0.00000   0.00000   )
                     (   0.00000   0.00000   )
                     (   0.00000   0.00000   )
                     (   0.00000   0.00000   )
                     (   0.00000   0.00000   )
                     (  -0.00000   0.00000   )
                     (  -0.00000   0.00000   )
                     (  -0.70711   0.00000   )
                     (   0.00000   0.00000   )
                     (   0.00000   0.00000   )
                     (   0.70711   0.00000   )
                     (   0.00000   0.00000   )
                     (   0.00000   0.00000   )
                     (   0.00000   0.00000   )
                     (   0.00000   0.00000   )
                     (   0.00000   0.00000   )
                     (   0.00000   0.00000   )
                     (   0.00000   0.00000   )
                     (   0.00000   0.00000   )
                     (   0.00000   0.00000   )
                     (   0.00000   0.00000   )
                     (   0.00000   0.00000   )
                     (   0.00000   0.00000   )
                     (   0.00000   0.00000   )
                     (   0.00000   0.00000   )
                     (   0.00000   0.00000   )
                     (   0.00000   0.00000   )
                     (   0.00000   0.00000   )
                     (   0.00000   0.00000   )
                     (   0.00000   0.00000   )
                     (   0.00000   0.00000   )
                     (   0.00000   0.00000   )
                     (   0.00000   0.00000   )
                     (   0.00000   0.00000   )
                     (   0.00000   0.00000   )
                     (   0.00000   0.00000   )
                     (   0.00000   0.00000   )
                     (   0.00000   0.00000   )
                     (   0.00000   0.00000   )
                     (   0.00000   0.00000   )
                     (   0.00000   0.00000   )
                     (   0.00000   0.00000   )
                     (   0.00000   0.00000   )
                     (   0.00000   0.00000   )
                     (   0.00000   0.00000   )
                     (   0.00000   0.00000   )
                     (   0.00000   0.00000   )
[...]
                     (   0.00000   0.00000   )
                     (   0.00000   0.00000   )
                     (   0.00000   0.00000   )
                     (   0.00000   0.00000   )
                     (   0.00000   0.00000   )
                     (   0.00000   0.00000   )
                     (   0.00000   0.00000   )
                     (   0.00000   0.00000   )
                     (   0.00000   0.00000   )
                     (   0.00000   0.00000   )
                     (   0.00000   0.00000   )
                     (   0.00000   0.00000   )
                     (   0.00000   0.00000   )
                     (   0.00000   0.00000   )
                     (   0.00000   0.00000   )
  autoval = -.2047E+02
     Irreps are as follows:

[...]

                     mode # 149
                     (   0.00000   0.00000   )
                     (   0.00000   0.00000   )
                     (   0.00000   0.00000   )
                     (   0.00000   0.00000   )
                     (   0.00000   0.00000   )
                     (   0.00000   0.00000   )
                     (   0.00000   0.00000   )
                     (   0.00000   0.00000   )
                     (   0.00000   0.00000   )
                     (   0.00000   0.00000   )
                     (   0.00000   0.00000   )
                     (   0.00000   0.00000   )
                     (   0.00000   0.00000   )
                     (   0.00000   0.00000   )
                     (   0.00000   0.00000   )
                     (   0.00000   0.00000   )
                     (   0.00000   0.00000   )
                     (   0.00000   0.00000   )
                     (   0.00000   0.00000   )
                     (   0.00000   0.00000   )
                     (   0.00000   0.00000   )
                     (   0.00000   0.00000   )
                     (   0.00000   0.00000   )
                     (   0.00000   0.00000   )
                     (   0.00000   0.00000   )
                     (   0.00000   0.00000   )
                     (   0.00000   0.00000   )
                     (   0.00000   0.00000   )
                     (   0.00000   0.00000   )
                     (   0.00000   0.00000   )
                     (   0.00000   0.00000   )
                     (   0.00000   0.00000   )
                     (   0.00000   0.00000   )
                     (   0.00000   0.00000   )
                     (   0.00000   0.00000   )
                     (   0.00000   0.00000   )
                     (   0.00000   0.00000   )
                     (   0.00000   0.00000   )
                     (   0.00000   0.00000   )
                     (   0.00000   0.00000   )
                     (   0.00000   0.00000   )
                     (   0.00000   0.00000   )
                     (   0.00000   0.00000   )
                     (   0.00000   0.00000   )
                     (   0.00000   0.00000   )
                     (   0.00000   0.00000   )
                     (   0.00000   0.00000   )
                     (   0.00000   0.00000   )
                     (   0.00000   0.00000   )
                     (   0.00000   0.00000   )
                     (   0.00000   0.00000   )
                     (   0.00000   0.00000   )
                     (   0.00000   0.00000   )
                     (   0.00000   0.00000   )
                     (   0.00000   0.00000   )
                     (   0.00000   0.00000   )
                     (   0.00000   0.00000   )
                     (   0.00000   0.00000   )
                     (   0.00000   0.00000   )
                     (   0.00000   0.00000   )
[...]
                     (   0.00784   0.00000   )
                     (   0.06232   0.00000   )
                     (   0.34793   0.00000   )
                     (   0.00000   0.00000   )
                     (   0.00000   0.00000   )
                     (   0.00000   0.00000   )
                     (   0.00000   0.00000   )
                     (   0.00000   0.00000   )
                     (   0.00000   0.00000   )
                     (   0.00000   0.00000   )
                     (   0.00000   0.00000   )
                     (   0.00000   0.00000   )
                     (   0.00000   0.00000   )
                     (   0.00000   0.00000   )
                     (   0.00000   0.00000   )
  autoval = 0.2240E+02
     Irreps are as follows:

                     mode # 150
                     (   0.00000   0.00000   )
                     (   0.00000   0.00000   )
                     (   0.00000   0.00000   )
                     (   0.00000   0.00000   )
                     (   0.00000   0.00000   )
                     (   0.00000   0.00000   )
                     (   0.00000   0.00000   )
                     (   0.00000   0.00000   )
                     (   0.00000   0.00000   )
                     (   0.00000   0.00000   )
                     (   0.00000   0.00000   )
                     (   0.00000   0.00000   )
                     (   0.00000   0.00000   )
                     (   0.00000   0.00000   )
                     (   0.00000   0.00000   )
                     (   0.00000   0.00000   )
                     (   0.00000   0.00000   )
                     (   0.00000   0.00000   )
                     (   0.00000   0.00000   )
                     (   0.00000   0.00000   )
                     (   0.00000   0.00000   )
                     (   0.00000   0.00000   )
                     (   0.00000   0.00000   )
                     (   0.00000   0.00000   )
                     (   0.00000   0.00000   )
                     (   0.00000   0.00000   )
                     (   0.00000   0.00000   )
                     (   0.00000   0.00000   )
                     (   0.00000   0.00000   )
                     (   0.00000   0.00000   )
                     (   0.00000   0.00000   )
                     (   0.00000   0.00000   )
                     (   0.00000   0.00000   )
                     (   0.00000   0.00000   )
                     (   0.00000   0.00000   )
                     (   0.00000   0.00000   )
                     (   0.00000   0.00000   )
                     (   0.00000   0.00000   )
                     (   0.00000   0.00000   )
                     (   0.00000   0.00000   )
                     (   0.00000   0.00000   )
                     (   0.00000   0.00000   )
                     (   0.00000   0.00000   )
                     (   0.00000   0.00000   )
                     (   0.00000   0.00000   )
                     (   0.00000   0.00000   )
                     (   0.00000   0.00000   )
                     (   0.00000   0.00000   )
                     (   0.00000   0.00000   )
                     (   0.00000   0.00000   )
                     (   0.00000   0.00000   )
                     (   0.00000   0.00000   )
                     (   0.00000   0.00000   )
                     (   0.00000   0.00000   )
                     (   0.00000   0.00000   )
                     (   0.00000   0.00000   )
                     (   0.00000   0.00000   )
                     (   0.00000   0.00000   )
                     (   0.00000   0.00000   )
                     (   0.00000   0.00000   )
[...]
                     (   0.00355   0.00000   )
                     (  -0.03786   0.00000   )
                     (   0.35150   0.00000   )
                     (   0.00000   0.00000   )
                     (   0.00000   0.00000   )
                     (   0.00000   0.00000   )
[...]
     lambda(   56)= -0.0001   gamma=    0.03 GHz
     lambda(   57)= -0.0000   gamma=    0.00 GHz
     lambda(   58)= -0.0001   gamma=    0.02 GHz
     lambda(   59)= -0.0000   gamma=    0.00 GHz
     lambda(   60)= -0.0000   gamma=    0.00 GHz
[...]
     lambda(  136)= -0.0000   gamma=    0.02 GHz
     lambda(  137)= -0.0002   gamma=    3.30 GHz
     lambda(  138)= -0.0002   gamma=    3.73 GHz
     lambda(  139)= -0.0000   gamma=    0.01 GHz
     lambda(  140)= -0.0000   gamma=    0.02 GHz
     lambda(  141)= -0.0000   gamma=    0.00 GHz
     lambda(  142)= -0.0000   gamma=    0.00 GHz
     lambda(  143)= -0.0000   gamma=    0.00 GHz
     lambda(  144)= -0.0000   gamma=    0.00 GHz
     lambda(  145)= -0.0000   gamma=    0.01 GHz
     lambda(  146)= -0.0000   gamma=    0.00 GHz
     lambda(  147)= -0.0000   gamma=    0.00 GHz
     lambda(  148)= -0.0000   gamma=    0.00 GHz
     lambda(  149)= -0.0000   gamma=    0.07 GHz
     lambda(  150)= -0.0000   gamma=    0.01 GHz

     Gaussian Broadening:   0.100 Ry, ngauss=   0
     DOS = -2.432887 states/spin/Ry/Unit Cell at Ef=  3.903055 eV
     double delta at Ef = 99.746858
     lambda(    1)=  0.0287   gamma=    0.11 GHz
     lambda(    2)=  0.0396   gamma=    0.14 GHz
     lambda(    3)=  0.0774   gamma=    0.12 GHz
     lambda(    4)=  0.0000   gamma=    0.02 GHz
     lambda(    5)= -0.5980   gamma=    0.60 GHz
     lambda(    6)= -0.1499   gamma=    0.16 GHz
     lambda(    7)= -0.1683   gamma=    0.36 GHz
     lambda(    8)= -0.1010   gamma=    0.22 GHz
     lambda(    9)= -0.0254   gamma=    0.06 GHz
     lambda(   10)= -0.0100   gamma=    0.02 GHz
     lambda(   11)= -0.0417   gamma=    0.15 GHz
     lambda(   12)= -0.0089   gamma=    0.04 GHz
     lambda(   13)= -0.0088   gamma=    0.04 GHz
     lambda(   14)= -0.0183   gamma=    0.08 GHz
     lambda(   15)= -0.0089   gamma=    0.04 GHz
     lambda(   16)= -0.0117   gamma=    0.06 GHz
     lambda(   17)= -0.0273   gamma=    0.15 GHz
     lambda(   18)= -0.0033   gamma=    0.02 GHz
     lambda(   19)= -0.0098   gamma=    0.06 GHz
     lambda(   20)= -0.0276   gamma=    0.19 GHz
     lambda(   21)= -0.0127   gamma=    0.10 GHz
     lambda(   22)= -0.0214   gamma=    0.16 GHz
     lambda(   23)= -0.0126   gamma=    0.10 GHz
     lambda(   24)= -0.0806   gamma=    0.72 GHz
     lambda(   25)= -0.0126   gamma=    0.27 GHz
     lambda(   26)= -0.0051   gamma=    0.11 GHz
     lambda(   27)= -0.0522   gamma=    1.15 GHz
     lambda(   28)= -0.1210   gamma=    2.71 GHz
     lambda(   29)= -0.0039   gamma=    0.09 GHz
     lambda(   30)= -0.0005   gamma=    0.01 GHz
     lambda(   31)= -0.0010   gamma=    0.02 GHz
     lambda(   32)= -0.0039   gamma=    0.09 GHz
     lambda(   33)= -0.0004   gamma=    0.01 GHz
     lambda(   34)= -0.0009   gamma=    0.02 GHz
     lambda(   35)= -0.0017   gamma=    0.05 GHz
     lambda(   36)= -0.0001   gamma=    0.00 GHz
     lambda(   37)= -0.0241   gamma=    0.71 GHz
     lambda(   38)= -0.0249   gamma=    0.76 GHz
     lambda(   39)= -0.0603   gamma=    2.13 GHz
     lambda(   40)= -0.0003   gamma=    0.01 GHz
     lambda(   41)= -0.0008   gamma=    0.03 GHz
     lambda(   42)= -0.0201   gamma=    0.90 GHz
     lambda(   43)= -0.0001   gamma=    0.01 GHz
     lambda(   44)= -0.0003   gamma=    0.01 GHz
     lambda(   45)= -0.0001   gamma=    0.01 GHz
     lambda(   46)= -0.0003   gamma=    0.02 GHz
     lambda(   47)= -0.0003   gamma=    0.03 GHz
     lambda(   48)= -0.0003   gamma=    0.03 GHz
     lambda(   49)= -0.0003   gamma=    0.03 GHz
     lambda(   50)= -0.0003   gamma=    0.03 GHz
     lambda(   51)= -0.0000   gamma=    0.01 GHz
     lambda(   52)= -0.0001   gamma=    0.01 GHz
     lambda(   53)= -0.0001   gamma=    0.01 GHz
     lambda(   54)= -0.0000   gamma=    0.01 GHz
     lambda(   55)= -0.0000   gamma=    0.01 GHz
     lambda(   56)= -0.0003   gamma=    0.07 GHz
     lambda(   57)= -0.0000   gamma=    0.00 GHz
     lambda(   58)= -0.0002   gamma=    0.05 GHz
     lambda(   59)= -0.0000   gamma=    0.00 GHz
     lambda(   60)= -0.0000   gamma=    0.02 GHz
[...]
     lambda(  136)= -0.0000   gamma=    0.24 GHz
     lambda(  137)= -0.0005   gamma=    8.69 GHz
     lambda(  138)= -0.0005   gamma=   10.41 GHz
     lambda(  139)= -0.0000   gamma=    0.11 GHz
     lambda(  140)= -0.0000   gamma=    0.12 GHz
     lambda(  141)= -0.0000   gamma=    0.02 GHz
     lambda(  142)= -0.0000   gamma=    0.04 GHz
     lambda(  143)= -0.0000   gamma=    0.07 GHz
     lambda(  144)= -0.0000   gamma=    0.04 GHz
     lambda(  145)= -0.0000   gamma=    0.07 GHz
     lambda(  146)= -0.0000   gamma=    0.03 GHz
     lambda(  147)= -0.0000   gamma=    0.04 GHz
     lambda(  148)= -0.0000   gamma=    0.03 GHz
     lambda(  149)= -0.0000   gamma=    0.32 GHz
     lambda(  150)= -0.0000   gamma=    0.15 GHz
     Minimization algorithm failed to find Fermi energy: reverting to bisection
     Possible cause: smearing is larger than the electronic band-gap.

     Gaussian Broadening:   0.120 Ry, ngauss=   0
     DOS = 25.849149 states/spin/Ry/Unit Cell at Ef=  2.330212 eV
     double delta at Ef =**********
     lambda(    1)= -0.0155   gamma=    0.61 GHz
     lambda(    2)= -0.0201   gamma=    0.74 GHz
     lambda(    3)= -0.0285   gamma=    0.46 GHz
     lambda(    4)=  0.0000   gamma=    0.10 GHz
     lambda(    5)=  0.1065   gamma=    1.14 GHz
     lambda(    6)=  0.0356   gamma=    0.40 GHz
     lambda(    7)=  0.0269   gamma=    0.60 GHz
     lambda(    8)=  0.0146   gamma=    0.33 GHz
     lambda(    9)=  0.0154   gamma=    0.38 GHz
     lambda(   10)=  0.0123   gamma=    0.31 GHz
     lambda(   11)=  0.0190   gamma=    0.70 GHz
     lambda(   12)=  0.0052   gamma=    0.22 GHz
     lambda(   13)=  0.0068   gamma=    0.29 GHz
     lambda(   14)=  0.0099   gamma=    0.44 GHz
     lambda(   15)=  0.0079   gamma=    0.40 GHz
     lambda(   16)=  0.0069   gamma=    0.39 GHz
     lambda(   17)=  0.0207   gamma=    1.24 GHz
     lambda(   18)=  0.0057   gamma=    0.34 GHz
     lambda(   19)=  0.0121   gamma=    0.82 GHz
     lambda(   20)=  0.0084   gamma=    0.61 GHz
     lambda(   21)=  0.0156   gamma=    1.27 GHz
     lambda(   22)=  0.0117   gamma=    0.96 GHz
     lambda(   23)=  0.0076   gamma=    0.64 GHz
     lambda(   24)=  0.0518   gamma=    4.93 GHz
     lambda(   25)=  0.0146   gamma=    3.28 GHz
     lambda(   26)=  0.0192   gamma=    4.38 GHz
     lambda(   27)=  0.0177   gamma=    4.14 GHz
     lambda(   28)=  0.0187   gamma=    4.46 GHz
     lambda(   29)=  0.0023   gamma=    0.55 GHz
     lambda(   30)=  0.0018   gamma=    0.43 GHz
     lambda(   31)=  0.0046   gamma=    1.15 GHz
     lambda(   32)=  0.0289   gamma=    7.54 GHz
     lambda(   33)=  0.0007   gamma=    0.21 GHz
     lambda(   34)=  0.0007   gamma=    0.21 GHz
     lambda(   35)=  0.0019   gamma=    0.58 GHz
     lambda(   36)=  0.0008   gamma=    0.23 GHz
     lambda(   37)=  0.0286   gamma=    8.95 GHz
     lambda(   38)=  0.0173   gamma=    5.64 GHz
     lambda(   39)=  0.0176   gamma=    6.61 GHz
     lambda(   40)=  0.0006   gamma=    0.27 GHz
     lambda(   41)=  0.0006   gamma=    0.25 GHz
     lambda(   42)=  0.0092   gamma=    4.36 GHz
     lambda(   43)=  0.0003   gamma=    0.18 GHz
     lambda(   44)=  0.0004   gamma=    0.22 GHz
     lambda(   45)=  0.0003   gamma=    0.24 GHz
     lambda(   46)=  0.0007   gamma=    0.52 GHz
     lambda(   47)=  0.0006   gamma=    0.64 GHz
     lambda(   48)=  0.0006   gamma=    0.56 GHz
     lambda(   49)=  0.0007   gamma=    0.71 GHz
     lambda(   50)=  0.0006   gamma=    0.67 GHz
     lambda(   51)=  0.0002   gamma=    0.38 GHz
     lambda(   52)=  0.0002   gamma=    0.28 GHz
     lambda(   53)=  0.0001   gamma=    0.26 GHz
     lambda(   54)=  0.0001   gamma=    0.24 GHz
     lambda(   55)=  0.0002   gamma=    0.41 GHz
     lambda(   56)=  0.0003   gamma=    0.78 GHz
     lambda(   57)=  0.0005   gamma=    1.62 GHz
     lambda(   58)=  0.0003   gamma=    0.83 GHz
     lambda(   59)=  0.0002   gamma=    1.00 GHz
     lambda(   60)=  0.0005   gamma=    2.51 GHz
[...]
     lambda(  136)=  0.0005   gamma=   96.85 GHz
     lambda(  137)=  0.0009   gamma=  172.02 GHz
     lambda(  138)=  0.0009   gamma=  183.11 GHz
     lambda(  139)=  0.0000   gamma=    2.49 GHz
     lambda(  140)=  0.0000   gamma=    2.45 GHz
     lambda(  141)=  0.0000   gamma=    2.27 GHz
     lambda(  142)=  0.0000   gamma=    2.67 GHz
     lambda(  143)=  0.0000   gamma=    1.60 GHz
     lambda(  144)=  0.0000   gamma=    2.19 GHz
     lambda(  145)=  0.0000   gamma=    2.02 GHz
     lambda(  146)=  0.0000   gamma=    2.06 GHz
     lambda(  147)=  0.0000   gamma=    1.45 GHz
     lambda(  148)=  0.0000   gamma=    2.48 GHz
     lambda(  149)=  0.0000   gamma=    9.36 GHz
     lambda(  150)=  0.0000   gamma=    5.80 GHz
     Minimization algorithm failed to find Fermi energy: reverting to bisection
     Possible cause: smearing is larger than the electronic band-gap.

     Gaussian Broadening:   0.140 Ry, ngauss=   0
     DOS = 22.303323 states/spin/Ry/Unit Cell at Ef=  2.542672 eV
     double delta at Ef =**********
     lambda(    1)= -0.0214   gamma=    0.73 GHz
     lambda(    2)= -0.0277   gamma=    0.88 GHz
     lambda(    3)= -0.0652   gamma=    0.91 GHz
     lambda(    4)=  0.0000   gamma=    0.20 GHz
     lambda(    5)=  0.2107   gamma=    1.95 GHz
     lambda(    6)=  0.0778   gamma=    0.76 GHz
     lambda(    7)=  0.0488   gamma=    0.95 GHz
     lambda(    8)=  0.0263   gamma=    0.52 GHz
     lambda(    9)=  0.0253   gamma=    0.53 GHz
     lambda(   10)=  0.0189   gamma=    0.41 GHz
     lambda(   11)=  0.0304   gamma=    0.97 GHz
     lambda(   12)=  0.0091   gamma=    0.33 GHz
     lambda(   13)=  0.0101   gamma=    0.38 GHz
     lambda(   14)=  0.0154   gamma=    0.59 GHz
     lambda(   15)=  0.0102   gamma=    0.44 GHz
     lambda(   16)=  0.0116   gamma=    0.56 GHz
     lambda(   17)=  0.0265   gamma=    1.37 GHz
     lambda(   18)=  0.0068   gamma=    0.36 GHz
     lambda(   19)=  0.0140   gamma=    0.82 GHz
     lambda(   20)=  0.0136   gamma=    0.85 GHz
     lambda(   21)=  0.0189   gamma=    1.33 GHz
     lambda(   22)=  0.0164   gamma=    1.15 GHz
     lambda(   23)=  0.0102   gamma=    0.74 GHz
     lambda(   24)=  0.0559   gamma=    4.59 GHz
     lambda(   25)=  0.0158   gamma=    3.07 GHz
     lambda(   26)=  0.0228   gamma=    4.50 GHz
     lambda(   27)=  0.0354   gamma=    7.14 GHz
     lambda(   28)=  0.0366   gamma=    7.52 GHz
     lambda(   29)=  0.0035   gamma=    0.72 GHz
     lambda(   30)=  0.0021   gamma=    0.45 GHz
     lambda(   31)=  0.0048   gamma=    1.05 GHz
     lambda(   32)=  0.0309   gamma=    6.95 GHz
     lambda(   33)=  0.0010   gamma=    0.24 GHz
     lambda(   34)=  0.0010   gamma=    0.26 GHz
     lambda(   35)=  0.0025   gamma=    0.64 GHz
     lambda(   36)=  0.0009   gamma=    0.23 GHz
     lambda(   37)=  0.0267   gamma=    7.20 GHz
     lambda(   38)=  0.0179   gamma=    5.03 GHz
     lambda(   39)=  0.0179   gamma=    5.80 GHz
     lambda(   40)=  0.0008   gamma=    0.30 GHz
     lambda(   41)=  0.0008   gamma=    0.30 GHz
     lambda(   42)=  0.0085   gamma=    3.49 GHz
     lambda(   43)=  0.0004   gamma=    0.19 GHz
     lambda(   44)=  0.0005   gamma=    0.25 GHz
     lambda(   45)=  0.0004   gamma=    0.25 GHz
     lambda(   46)=  0.0007   gamma=    0.46 GHz
     lambda(   47)=  0.0007   gamma=    0.63 GHz
     lambda(   48)=  0.0006   gamma=    0.56 GHz
     lambda(   49)=  0.0008   gamma=    0.76 GHz
     lambda(   50)=  0.0007   gamma=    0.69 GHz
     lambda(   51)=  0.0002   gamma=    0.37 GHz
     lambda(   52)=  0.0002   gamma=    0.28 GHz
     lambda(   53)=  0.0001   gamma=    0.25 GHz
     lambda(   54)=  0.0001   gamma=    0.24 GHz
     lambda(   55)=  0.0002   gamma=    0.39 GHz
     lambda(   56)=  0.0003   gamma=    0.67 GHz
     lambda(   57)=  0.0005   gamma=    1.38 GHz
     lambda(   58)=  0.0003   gamma=    0.71 GHz
     lambda(   59)=  0.0002   gamma=    0.89 GHz
     lambda(   60)=  0.0005   gamma=    2.07 GHz
[...]
     lambda(  136)=  0.0005   gamma=   81.39 GHz
     lambda(  137)=  0.0008   gamma=  137.64 GHz
     lambda(  138)=  0.0008   gamma=  147.00 GHz
     lambda(  139)=  0.0000   gamma=    2.52 GHz
     lambda(  140)=  0.0000   gamma=    2.50 GHz
     lambda(  141)=  0.0000   gamma=    2.07 GHz
     lambda(  142)=  0.0000   gamma=    2.44 GHz
     lambda(  143)=  0.0000   gamma=    1.58 GHz
     lambda(  144)=  0.0000   gamma=    2.12 GHz
     lambda(  145)=  0.0000   gamma=    1.89 GHz
     lambda(  146)=  0.0000   gamma=    1.99 GHz
     lambda(  147)=  0.0000   gamma=    1.45 GHz
     lambda(  148)=  0.0000   gamma=    2.30 GHz
     lambda(  149)=  0.0000   gamma=    7.44 GHz
     lambda(  150)=  0.0000   gamma=    4.92 GHz

[...]

     Gaussian Broadening:   0.200 Ry, ngauss=   0
     DOS = 19.540985 states/spin/Ry/Unit Cell at Ef=  3.191930 eV
     double delta at Ef =**********
     lambda(    1)= -0.0700   gamma=    2.10 GHz
     lambda(    2)= -0.0901   gamma=    2.50 GHz
     lambda(    3)= -0.2726   gamma=    3.33 GHz
     lambda(    4)=  0.0000   gamma=    1.13 GHz
     lambda(    5)=  0.7365   gamma=    5.96 GHz
     lambda(    6)=  0.3152   gamma=    2.69 GHz
     lambda(    7)=  0.1218   gamma=    2.07 GHz
     lambda(    8)=  0.0550   gamma=    0.95 GHz
     lambda(    9)=  0.1025   gamma=    1.90 GHz
     lambda(   10)=  0.0905   gamma=    1.74 GHz
     lambda(   11)=  0.0874   gamma=    2.45 GHz
     lambda(   12)=  0.0704   gamma=    2.24 GHz
     lambda(   13)=  0.0428   gamma=    1.39 GHz
     lambda(   14)=  0.0588   gamma=    1.97 GHz
     lambda(   15)=  0.0497   gamma=    1.90 GHz
     lambda(   16)=  0.0493   gamma=    2.08 GHz
     lambda(   17)=  0.0618   gamma=    2.80 GHz
     lambda(   18)=  0.0207   gamma=    0.95 GHz
     lambda(   19)=  0.0294   gamma=    1.51 GHz
     lambda(   20)=  0.0531   gamma=    2.89 GHz
     lambda(   21)=  0.0417   gamma=    2.56 GHz
     lambda(   22)=  0.0490   gamma=    3.03 GHz
     lambda(   23)=  0.0305   gamma=    1.94 GHz
     lambda(   24)=  0.0856   gamma=    6.15 GHz
     lambda(   25)=  0.0308   gamma=    5.23 GHz
     lambda(   26)=  0.0383   gamma=    6.62 GHz
     lambda(   27)=  0.0788   gamma=   13.92 GHz
     lambda(   28)=  0.0797   gamma=   14.34 GHz
     lambda(   29)=  0.0125   gamma=    2.26 GHz
     lambda(   30)=  0.0106   gamma=    1.96 GHz
     lambda(   31)=  0.0076   gamma=    1.44 GHz
     lambda(   32)=  0.0388   gamma=    7.65 GHz
     lambda(   33)=  0.0067   gamma=    1.39 GHz
     lambda(   34)=  0.0065   gamma=    1.39 GHz
     lambda(   35)=  0.0103   gamma=    2.32 GHz
     lambda(   36)=  0.0029   gamma=    0.67 GHz
     lambda(   37)=  0.0290   gamma=    6.85 GHz
     lambda(   38)=  0.0313   gamma=    7.69 GHz
     lambda(   39)=  0.0283   gamma=    8.02 GHz
     lambda(   40)=  0.0046   gamma=    1.45 GHz
     lambda(   41)=  0.0034   gamma=    1.09 GHz
     lambda(   42)=  0.0104   gamma=    3.71 GHz
     lambda(   43)=  0.0023   gamma=    0.93 GHz
     lambda(   44)=  0.0021   gamma=    0.93 GHz
     lambda(   45)=  0.0024   gamma=    1.28 GHz
     lambda(   46)=  0.0025   gamma=    1.37 GHz
     lambda(   47)=  0.0020   gamma=    1.49 GHz
     lambda(   48)=  0.0018   gamma=    1.40 GHz
     lambda(   49)=  0.0024   gamma=    1.95 GHz
     lambda(   50)=  0.0019   gamma=    1.55 GHz
     lambda(   51)=  0.0008   gamma=    1.00 GHz
     lambda(   52)=  0.0006   gamma=    0.76 GHz
     lambda(   53)=  0.0005   gamma=    0.70 GHz
     lambda(   54)=  0.0005   gamma=    0.71 GHz
     lambda(   55)=  0.0008   gamma=    1.28 GHz
     lambda(   56)=  0.0009   gamma=    1.50 GHz
     lambda(   57)=  0.0006   gamma=    1.40 GHz
     lambda(   58)=  0.0004   gamma=    0.96 GHz
     lambda(   59)=  0.0006   gamma=    2.18 GHz
     lambda(   60)=  0.0008   gamma=    2.90 GHz
[...]
     lambda(  136)=  0.0004   gamma=   58.49 GHz
     lambda(  137)=  0.0006   gamma=   91.20 GHz
     lambda(  138)=  0.0006   gamma=   98.56 GHz
     lambda(  139)=  0.0000   gamma=    6.98 GHz
     lambda(  140)=  0.0000   gamma=    7.08 GHz
     lambda(  141)=  0.0000   gamma=    4.65 GHz
     lambda(  142)=  0.0000   gamma=    5.66 GHz
     lambda(  143)=  0.0000   gamma=    4.35 GHz
     lambda(  144)=  0.0000   gamma=    5.01 GHz
     lambda(  145)=  0.0000   gamma=    4.69 GHz
     lambda(  146)=  0.0000   gamma=    4.95 GHz
     lambda(  147)=  0.0000   gamma=    4.96 GHz
     lambda(  148)=  0.0000   gamma=    5.56 GHz
     lambda(  149)=  0.0001   gamma=    8.39 GHz
     lambda(  150)=  0.0000   gamma=    7.32 GHz

     INITIALIZATION:

     DYNAMICAL MATRIX:

      Electron-phonon coupling

      General routines

   This run was terminated on:  22: 3:23  31Aug2023

   JOB DONE.